min

obj:

+38 x0
+14 x1
+47 x2
+25 x3
+37 x4
+19 x5
+24 x6
+28 x7
+24 x8
+8 x9
+35 x10
+51 x11
+11 x12
+40 x13
+31 x14
+24 x15
+13 x16
+30 x17
+10 x18
+26 x19
+30 x20
+30 x21
+13 x22
+31 x23
+20 x24
+21 x25
+30 x26
+22 x27
+13 x28
+6 x29
+11 x30
+16 x31
+20 x32
+19 x33
+25 x34
+21 x35
+17 x36
+10 x37
+11 x38
+26 x39
+24 x40
+34 x41
+13 x42
+30 x43
+12 x44
+7 x45
+11 x46
+19 x47
+10 x48
+11 x49
+7 x50
+6 x51
+9 x52
+11 x53
+14 x54
+20 x55
+4 x56
+7 x57
+10 x58
+14 x59
+7 x60
+3 x61
+12 x62
+14 x63
+22 x64
+20 x65
+20 x66
+6 x67
+16 x68
+18 x69
+14 x70
+17 x71
+23 x72
+23 x73
+26 x74
+22 x75
+4 x76
+13 x77
+13 x78
+1 x79
+24 x80
+24 x81
+26 x82
+18 x83
+17 x84
+30 x85
+23 x86
+31 x87
+9 x88
+27 x89
+18 x90
+13 x91
+14 x92
+8 x93
+16 x94
+15 x95
+13 x96
+5 x97
+9 x98
+14 x99
+11 x100
+9 x101
+2 x102
+13 x103
+12 x104
+7 x105
+6 x106
+3 x107
+6 x108
+12 x109
+10 x110
+11 x111
+18 x112
+23 x113
+14 x114
+16 x115
+16 x116
+6 x117
+9 x118
+18 x119
+13 x120
+19 x121
+14 x122
+8 x123
+9 x124
+14 x125
+9 x126
+11 x127
+24 x128
+21 x129
+24 x130
+15 x131
+5 x132
+10 x133
+18 x134
+19 x135
+11 x136
+10 x137


s.t.

c0:
+1 x1068
= +1
c1:
+1 x1069
= +1
c2:
+1 x1070
= +1
c3:
+1 x1071
= +1
c4:
+1 x1072
= +1
c5:
+1 x1073
= +1
c6:
+1 x1074
= +1
c7:
+1 x1075
= +1
c8:
+1 x1076
= +1
c9:
+1 x1077
= +1
c10:
+1 x1078
= +1
c11:
+1 x1079
= +1
c12:
+1 x1080
= +1
c13:
+1 x1081
= +1
c14:
+1 x1082
= +1
c15:
+1 x1083
= +1
c16:
+1 x1084
= +1
c17:
+1 x1085
= +1
c18:
+1 x1086
= +1
c19:
+1 x1087
= +1
c20:
+1 x0
-1 x138
-1 x276
= -0
c21:
+1 x1
-1 x139
-1 x277
= -0
c22:
+1 x2
-1 x140
-1 x278
= -0
c23:
+1 x3
-1 x141
-1 x279
= -0
c24:
+1 x4
-1 x142
-1 x280
= -0
c25:
+1 x5
-1 x143
-1 x281
= -0
c26:
+1 x6
-1 x144
-1 x282
= -0
c27:
+1 x7
-1 x145
-1 x283
= -0
c28:
+1 x8
-1 x146
-1 x284
= -0
c29:
+1 x9
-1 x147
-1 x285
= -0
c30:
+1 x10
-1 x148
-1 x286
= -0
c31:
+1 x11
-1 x149
-1 x287
= -0
c32:
+1 x12
-1 x150
-1 x288
= -0
c33:
+1 x13
-1 x151
-1 x289
= -0
c34:
+1 x14
-1 x152
-1 x290
= -0
c35:
+1 x15
-1 x153
-1 x291
= -0
c36:
+1 x16
-1 x154
-1 x292
= -0
c37:
+1 x17
-1 x155
-1 x293
= -0
c38:
+1 x18
-1 x156
-1 x294
= -0
c39:
+1 x19
-1 x157
-1 x295
= -0
c40:
+1 x20
-1 x158
-1 x296
= -0
c41:
+1 x21
-1 x159
-1 x297
= -0
c42:
+1 x22
-1 x160
-1 x298
= -0
c43:
+1 x23
-1 x161
-1 x299
= -0
c44:
+1 x24
-1 x162
-1 x300
= -0
c45:
+1 x25
-1 x163
-1 x301
= -0
c46:
+1 x26
-1 x164
-1 x302
= -0
c47:
+1 x27
-1 x165
-1 x303
= -0
c48:
+1 x28
-1 x166
-1 x304
= -0
c49:
+1 x29
-1 x167
-1 x305
= -0
c50:
+1 x30
-1 x168
-1 x306
= -0
c51:
+1 x31
-1 x169
-1 x307
= -0
c52:
+1 x32
-1 x170
-1 x308
= -0
c53:
+1 x33
-1 x171
-1 x309
= -0
c54:
+1 x34
-1 x172
-1 x310
= -0
c55:
+1 x35
-1 x173
-1 x311
= -0
c56:
+1 x36
-1 x174
-1 x312
= -0
c57:
+1 x37
-1 x175
-1 x313
= -0
c58:
+1 x38
-1 x176
-1 x314
= -0
c59:
+1 x39
-1 x177
-1 x315
= -0
c60:
+1 x40
-1 x178
-1 x316
= -0
c61:
+1 x41
-1 x179
-1 x317
= -0
c62:
+1 x42
-1 x180
-1 x318
= -0
c63:
+1 x43
-1 x181
-1 x319
= -0
c64:
+1 x44
-1 x182
-1 x320
= -0
c65:
+1 x45
-1 x183
-1 x321
= -0
c66:
+1 x46
-1 x184
-1 x322
= -0
c67:
+1 x47
-1 x185
-1 x323
= -0
c68:
+1 x48
-1 x186
-1 x324
= -0
c69:
+1 x49
-1 x187
-1 x325
= -0
c70:
+1 x50
-1 x188
-1 x326
= -0
c71:
+1 x51
-1 x189
-1 x327
= -0
c72:
+1 x52
-1 x190
-1 x328
= -0
c73:
+1 x53
-1 x191
-1 x329
= -0
c74:
+1 x54
-1 x192
-1 x330
= -0
c75:
+1 x55
-1 x193
-1 x331
= -0
c76:
+1 x56
-1 x194
-1 x332
= -0
c77:
+1 x57
-1 x195
-1 x333
= -0
c78:
+1 x58
-1 x196
-1 x334
= -0
c79:
+1 x59
-1 x197
-1 x335
= -0
c80:
+1 x60
-1 x198
-1 x336
= -0
c81:
+1 x61
-1 x199
-1 x337
= -0
c82:
+1 x62
-1 x200
-1 x338
= -0
c83:
+1 x63
-1 x201
-1 x339
= -0
c84:
+1 x64
-1 x202
-1 x340
= -0
c85:
+1 x65
-1 x203
-1 x341
= -0
c86:
+1 x66
-1 x204
-1 x342
= -0
c87:
+1 x67
-1 x205
-1 x343
= -0
c88:
+1 x68
-1 x206
-1 x344
= -0
c89:
+1 x69
-1 x207
-1 x345
= -0
c90:
+1 x70
-1 x208
-1 x346
= -0
c91:
+1 x71
-1 x209
-1 x347
= -0
c92:
+1 x72
-1 x210
-1 x348
= -0
c93:
+1 x73
-1 x211
-1 x349
= -0
c94:
+1 x74
-1 x212
-1 x350
= -0
c95:
+1 x75
-1 x213
-1 x351
= -0
c96:
+1 x76
-1 x214
-1 x352
= -0
c97:
+1 x77
-1 x215
-1 x353
= -0
c98:
+1 x78
-1 x216
-1 x354
= -0
c99:
+1 x79
-1 x217
-1 x355
= -0
c100:
+1 x80
-1 x218
-1 x356
= -0
c101:
+1 x81
-1 x219
-1 x357
= -0
c102:
+1 x82
-1 x220
-1 x358
= -0
c103:
+1 x83
-1 x221
-1 x359
= -0
c104:
+1 x84
-1 x222
-1 x360
= -0
c105:
+1 x85
-1 x223
-1 x361
= -0
c106:
+1 x86
-1 x224
-1 x362
= -0
c107:
+1 x87
-1 x225
-1 x363
= -0
c108:
+1 x88
-1 x226
-1 x364
= -0
c109:
+1 x89
-1 x227
-1 x365
= -0
c110:
+1 x90
-1 x228
-1 x366
= -0
c111:
+1 x91
-1 x229
-1 x367
= -0
c112:
+1 x92
-1 x230
-1 x368
= -0
c113:
+1 x93
-1 x231
-1 x369
= -0
c114:
+1 x94
-1 x232
-1 x370
= -0
c115:
+1 x95
-1 x233
-1 x371
= -0
c116:
+1 x96
-1 x234
-1 x372
= -0
c117:
+1 x97
-1 x235
-1 x373
= -0
c118:
+1 x98
-1 x236
-1 x374
= -0
c119:
+1 x99
-1 x237
-1 x375
= -0
c120:
+1 x100
-1 x238
-1 x376
= -0
c121:
+1 x101
-1 x239
-1 x377
= -0
c122:
+1 x102
-1 x240
-1 x378
= -0
c123:
+1 x103
-1 x241
-1 x379
= -0
c124:
+1 x104
-1 x242
-1 x380
= -0
c125:
+1 x105
-1 x243
-1 x381
= -0
c126:
+1 x106
-1 x244
-1 x382
= -0
c127:
+1 x107
-1 x245
-1 x383
= -0
c128:
+1 x108
-1 x246
-1 x384
= -0
c129:
+1 x109
-1 x247
-1 x385
= -0
c130:
+1 x110
-1 x248
-1 x386
= -0
c131:
+1 x111
-1 x249
-1 x387
= -0
c132:
+1 x112
-1 x250
-1 x388
= -0
c133:
+1 x113
-1 x251
-1 x389
= -0
c134:
+1 x114
-1 x252
-1 x390
= -0
c135:
+1 x115
-1 x253
-1 x391
= -0
c136:
+1 x116
-1 x254
-1 x392
= -0
c137:
+1 x117
-1 x255
-1 x393
= -0
c138:
+1 x118
-1 x256
-1 x394
= -0
c139:
+1 x119
-1 x257
-1 x395
= -0
c140:
+1 x120
-1 x258
-1 x396
= -0
c141:
+1 x121
-1 x259
-1 x397
= -0
c142:
+1 x122
-1 x260
-1 x398
= -0
c143:
+1 x123
-1 x261
-1 x399
= -0
c144:
+1 x124
-1 x262
-1 x400
= -0
c145:
+1 x125
-1 x263
-1 x401
= -0
c146:
+1 x126
-1 x264
-1 x402
= -0
c147:
+1 x127
-1 x265
-1 x403
= -0
c148:
+1 x128
-1 x266
-1 x404
= -0
c149:
+1 x129
-1 x267
-1 x405
= -0
c150:
+1 x130
-1 x268
-1 x406
= -0
c151:
+1 x131
-1 x269
-1 x407
= -0
c152:
+1 x132
-1 x270
-1 x408
= -0
c153:
+1 x133
-1 x271
-1 x409
= -0
c154:
+1 x134
-1 x272
-1 x410
= -0
c155:
+1 x135
-1 x273
-1 x411
= -0
c156:
+1 x136
-1 x274
-1 x412
= -0
c157:
+1 x137
-1 x275
-1 x413
= -0
c158:
-80 x138
-1 x414
<= -0
c159:
-80 x138
+1 x414
<= -0
c160:
-80 x139
-1 x415
<= -0
c161:
-80 x139
+1 x415
<= -0
c162:
-80 x140
-1 x416
<= -0
c163:
-80 x140
+1 x416
<= -0
c164:
-80 x141
-1 x417
<= -0
c165:
-80 x141
+1 x417
<= -0
c166:
-80 x142
-1 x418
<= -0
c167:
-80 x142
+1 x418
<= -0
c168:
-80 x143
-1 x419
<= -0
c169:
-80 x143
+1 x419
<= -0
c170:
-80 x144
-1 x420
<= -0
c171:
-80 x144
+1 x420
<= -0
c172:
-80 x145
-1 x421
<= -0
c173:
-80 x145
+1 x421
<= -0
c174:
-80 x146
-1 x422
<= -0
c175:
-80 x146
+1 x422
<= -0
c176:
-80 x147
-1 x423
<= -0
c177:
-80 x147
+1 x423
<= -0
c178:
-80 x148
-1 x424
<= -0
c179:
-80 x148
+1 x424
<= -0
c180:
-80 x149
-1 x425
<= -0
c181:
-80 x149
+1 x425
<= -0
c182:
-80 x150
-1 x426
<= -0
c183:
-80 x150
+1 x426
<= -0
c184:
-80 x151
-1 x427
<= -0
c185:
-80 x151
+1 x427
<= -0
c186:
-80 x152
-1 x428
<= -0
c187:
-80 x152
+1 x428
<= -0
c188:
-80 x153
-1 x429
<= -0
c189:
-80 x153
+1 x429
<= -0
c190:
-80 x154
-1 x430
<= -0
c191:
-80 x154
+1 x430
<= -0
c192:
-80 x155
-1 x431
<= -0
c193:
-80 x155
+1 x431
<= -0
c194:
-80 x156
-1 x432
<= -0
c195:
-80 x156
+1 x432
<= -0
c196:
-80 x157
-1 x433
<= -0
c197:
-80 x157
+1 x433
<= -0
c198:
-80 x158
-1 x434
<= -0
c199:
-80 x158
+1 x434
<= -0
c200:
-80 x159
-1 x435
<= -0
c201:
-80 x159
+1 x435
<= -0
c202:
-80 x160
-1 x436
<= -0
c203:
-80 x160
+1 x436
<= -0
c204:
-80 x161
-1 x437
<= -0
c205:
-80 x161
+1 x437
<= -0
c206:
-80 x162
-1 x438
<= -0
c207:
-80 x162
+1 x438
<= -0
c208:
-80 x163
-1 x439
<= -0
c209:
-80 x163
+1 x439
<= -0
c210:
-80 x164
-1 x440
<= -0
c211:
-80 x164
+1 x440
<= -0
c212:
-80 x165
-1 x441
<= -0
c213:
-80 x165
+1 x441
<= -0
c214:
-80 x166
-1 x442
<= -0
c215:
-80 x166
+1 x442
<= -0
c216:
-80 x167
-1 x443
<= -0
c217:
-80 x167
+1 x443
<= -0
c218:
-80 x168
-1 x444
<= -0
c219:
-80 x168
+1 x444
<= -0
c220:
-80 x169
-1 x445
<= -0
c221:
-80 x169
+1 x445
<= -0
c222:
-80 x170
-1 x446
<= -0
c223:
-80 x170
+1 x446
<= -0
c224:
-80 x171
-1 x447
<= -0
c225:
-80 x171
+1 x447
<= -0
c226:
-80 x172
-1 x448
<= -0
c227:
-80 x172
+1 x448
<= -0
c228:
-80 x173
-1 x449
<= -0
c229:
-80 x173
+1 x449
<= -0
c230:
-80 x174
-1 x450
<= -0
c231:
-80 x174
+1 x450
<= -0
c232:
-80 x175
-1 x451
<= -0
c233:
-80 x175
+1 x451
<= -0
c234:
-80 x176
-1 x452
<= -0
c235:
-80 x176
+1 x452
<= -0
c236:
-80 x177
-1 x453
<= -0
c237:
-80 x177
+1 x453
<= -0
c238:
-80 x178
-1 x454
<= -0
c239:
-80 x178
+1 x454
<= -0
c240:
-80 x179
-1 x455
<= -0
c241:
-80 x179
+1 x455
<= -0
c242:
-80 x180
-1 x456
<= -0
c243:
-80 x180
+1 x456
<= -0
c244:
-80 x181
-1 x457
<= -0
c245:
-80 x181
+1 x457
<= -0
c246:
-80 x182
-1 x458
<= -0
c247:
-80 x182
+1 x458
<= -0
c248:
-80 x183
-1 x459
<= -0
c249:
-80 x183
+1 x459
<= -0
c250:
-80 x184
-1 x460
<= -0
c251:
-80 x184
+1 x460
<= -0
c252:
-80 x185
-1 x461
<= -0
c253:
-80 x185
+1 x461
<= -0
c254:
-80 x186
-1 x462
<= -0
c255:
-80 x186
+1 x462
<= -0
c256:
-80 x187
-1 x463
<= -0
c257:
-80 x187
+1 x463
<= -0
c258:
-80 x188
-1 x464
<= -0
c259:
-80 x188
+1 x464
<= -0
c260:
-80 x189
-1 x465
<= -0
c261:
-80 x189
+1 x465
<= -0
c262:
-80 x190
-1 x466
<= -0
c263:
-80 x190
+1 x466
<= -0
c264:
-80 x191
-1 x467
<= -0
c265:
-80 x191
+1 x467
<= -0
c266:
-80 x192
-1 x468
<= -0
c267:
-80 x192
+1 x468
<= -0
c268:
-80 x193
-1 x469
<= -0
c269:
-80 x193
+1 x469
<= -0
c270:
-80 x194
-1 x470
<= -0
c271:
-80 x194
+1 x470
<= -0
c272:
-80 x195
-1 x471
<= -0
c273:
-80 x195
+1 x471
<= -0
c274:
-80 x196
-1 x472
<= -0
c275:
-80 x196
+1 x472
<= -0
c276:
-80 x197
-1 x473
<= -0
c277:
-80 x197
+1 x473
<= -0
c278:
-80 x198
-1 x474
<= -0
c279:
-80 x198
+1 x474
<= -0
c280:
-80 x199
-1 x475
<= -0
c281:
-80 x199
+1 x475
<= -0
c282:
-80 x200
-1 x476
<= -0
c283:
-80 x200
+1 x476
<= -0
c284:
-80 x201
-1 x477
<= -0
c285:
-80 x201
+1 x477
<= -0
c286:
-80 x202
-1 x478
<= -0
c287:
-80 x202
+1 x478
<= -0
c288:
-80 x203
-1 x479
<= -0
c289:
-80 x203
+1 x479
<= -0
c290:
-80 x204
-1 x480
<= -0
c291:
-80 x204
+1 x480
<= -0
c292:
-80 x205
-1 x481
<= -0
c293:
-80 x205
+1 x481
<= -0
c294:
-80 x206
-1 x482
<= -0
c295:
-80 x206
+1 x482
<= -0
c296:
-80 x207
-1 x483
<= -0
c297:
-80 x207
+1 x483
<= -0
c298:
-80 x208
-1 x484
<= -0
c299:
-80 x208
+1 x484
<= -0
c300:
-80 x209
-1 x485
<= -0
c301:
-80 x209
+1 x485
<= -0
c302:
-80 x210
-1 x486
<= -0
c303:
-80 x210
+1 x486
<= -0
c304:
-80 x211
-1 x487
<= -0
c305:
-80 x211
+1 x487
<= -0
c306:
-80 x212
-1 x488
<= -0
c307:
-80 x212
+1 x488
<= -0
c308:
-80 x213
-1 x489
<= -0
c309:
-80 x213
+1 x489
<= -0
c310:
-80 x214
-1 x490
<= -0
c311:
-80 x214
+1 x490
<= -0
c312:
-80 x215
-1 x491
<= -0
c313:
-80 x215
+1 x491
<= -0
c314:
-80 x216
-1 x492
<= -0
c315:
-80 x216
+1 x492
<= -0
c316:
-80 x217
-1 x493
<= -0
c317:
-80 x217
+1 x493
<= -0
c318:
-80 x218
-1 x494
<= -0
c319:
-80 x218
+1 x494
<= -0
c320:
-80 x219
-1 x495
<= -0
c321:
-80 x219
+1 x495
<= -0
c322:
-80 x220
-1 x496
<= -0
c323:
-80 x220
+1 x496
<= -0
c324:
-80 x221
-1 x497
<= -0
c325:
-80 x221
+1 x497
<= -0
c326:
-80 x222
-1 x498
<= -0
c327:
-80 x222
+1 x498
<= -0
c328:
-80 x223
-1 x499
<= -0
c329:
-80 x223
+1 x499
<= -0
c330:
-80 x224
-1 x500
<= -0
c331:
-80 x224
+1 x500
<= -0
c332:
-80 x225
-1 x501
<= -0
c333:
-80 x225
+1 x501
<= -0
c334:
-80 x226
-1 x502
<= -0
c335:
-80 x226
+1 x502
<= -0
c336:
-80 x227
-1 x503
<= -0
c337:
-80 x227
+1 x503
<= -0
c338:
-80 x228
-1 x504
<= -0
c339:
-80 x228
+1 x504
<= -0
c340:
-80 x229
-1 x505
<= -0
c341:
-80 x229
+1 x505
<= -0
c342:
-80 x230
-1 x506
<= -0
c343:
-80 x230
+1 x506
<= -0
c344:
-80 x231
-1 x507
<= -0
c345:
-80 x231
+1 x507
<= -0
c346:
-80 x232
-1 x508
<= -0
c347:
-80 x232
+1 x508
<= -0
c348:
-80 x233
-1 x509
<= -0
c349:
-80 x233
+1 x509
<= -0
c350:
-80 x234
-1 x510
<= -0
c351:
-80 x234
+1 x510
<= -0
c352:
-80 x235
-1 x511
<= -0
c353:
-80 x235
+1 x511
<= -0
c354:
-80 x236
-1 x512
<= -0
c355:
-80 x236
+1 x512
<= -0
c356:
-80 x237
-1 x513
<= -0
c357:
-80 x237
+1 x513
<= -0
c358:
-80 x238
-1 x514
<= -0
c359:
-80 x238
+1 x514
<= -0
c360:
-80 x239
-1 x515
<= -0
c361:
-80 x239
+1 x515
<= -0
c362:
-80 x240
-1 x516
<= -0
c363:
-80 x240
+1 x516
<= -0
c364:
-80 x241
-1 x517
<= -0
c365:
-80 x241
+1 x517
<= -0
c366:
-80 x242
-1 x518
<= -0
c367:
-80 x242
+1 x518
<= -0
c368:
-80 x243
-1 x519
<= -0
c369:
-80 x243
+1 x519
<= -0
c370:
-80 x244
-1 x520
<= -0
c371:
-80 x244
+1 x520
<= -0
c372:
-80 x245
-1 x521
<= -0
c373:
-80 x245
+1 x521
<= -0
c374:
-80 x246
-1 x522
<= -0
c375:
-80 x246
+1 x522
<= -0
c376:
-80 x247
-1 x523
<= -0
c377:
-80 x247
+1 x523
<= -0
c378:
-80 x248
-1 x524
<= -0
c379:
-80 x248
+1 x524
<= -0
c380:
-80 x249
-1 x525
<= -0
c381:
-80 x249
+1 x525
<= -0
c382:
-80 x250
-1 x526
<= -0
c383:
-80 x250
+1 x526
<= -0
c384:
-80 x251
-1 x527
<= -0
c385:
-80 x251
+1 x527
<= -0
c386:
-80 x252
-1 x528
<= -0
c387:
-80 x252
+1 x528
<= -0
c388:
-80 x253
-1 x529
<= -0
c389:
-80 x253
+1 x529
<= -0
c390:
-80 x254
-1 x530
<= -0
c391:
-80 x254
+1 x530
<= -0
c392:
-80 x255
-1 x531
<= -0
c393:
-80 x255
+1 x531
<= -0
c394:
-80 x256
-1 x532
<= -0
c395:
-80 x256
+1 x532
<= -0
c396:
-80 x257
-1 x533
<= -0
c397:
-80 x257
+1 x533
<= -0
c398:
-80 x258
-1 x534
<= -0
c399:
-80 x258
+1 x534
<= -0
c400:
-80 x259
-1 x535
<= -0
c401:
-80 x259
+1 x535
<= -0
c402:
-80 x260
-1 x536
<= -0
c403:
-80 x260
+1 x536
<= -0
c404:
-80 x261
-1 x537
<= -0
c405:
-80 x261
+1 x537
<= -0
c406:
-80 x262
-1 x538
<= -0
c407:
-80 x262
+1 x538
<= -0
c408:
-80 x263
-1 x539
<= -0
c409:
-80 x263
+1 x539
<= -0
c410:
-80 x264
-1 x540
<= -0
c411:
-80 x264
+1 x540
<= -0
c412:
-80 x265
-1 x541
<= -0
c413:
-80 x265
+1 x541
<= -0
c414:
-80 x266
-1 x542
<= -0
c415:
-80 x266
+1 x542
<= -0
c416:
-80 x267
-1 x543
<= -0
c417:
-80 x267
+1 x543
<= -0
c418:
-80 x268
-1 x544
<= -0
c419:
-80 x268
+1 x544
<= -0
c420:
-80 x269
-1 x545
<= -0
c421:
-80 x269
+1 x545
<= -0
c422:
-80 x270
-1 x546
<= -0
c423:
-80 x270
+1 x546
<= -0
c424:
-80 x271
-1 x547
<= -0
c425:
-80 x271
+1 x547
<= -0
c426:
-80 x272
-1 x548
<= -0
c427:
-80 x272
+1 x548
<= -0
c428:
-80 x273
-1 x549
<= -0
c429:
-80 x273
+1 x549
<= -0
c430:
-80 x274
-1 x550
<= -0
c431:
-80 x274
+1 x550
<= -0
c432:
-80 x275
-1 x551
<= -0
c433:
-80 x275
+1 x551
<= -0
c434:
-80 x276
-1 x552
<= -0
c435:
-80 x276
+1 x552
<= -0
c436:
-80 x277
-1 x553
<= -0
c437:
-80 x277
+1 x553
<= -0
c438:
-80 x278
-1 x554
<= -0
c439:
-80 x278
+1 x554
<= -0
c440:
-80 x279
-1 x555
<= -0
c441:
-80 x279
+1 x555
<= -0
c442:
-80 x280
-1 x556
<= -0
c443:
-80 x280
+1 x556
<= -0
c444:
-80 x281
-1 x557
<= -0
c445:
-80 x281
+1 x557
<= -0
c446:
-80 x282
-1 x558
<= -0
c447:
-80 x282
+1 x558
<= -0
c448:
-80 x283
-1 x559
<= -0
c449:
-80 x283
+1 x559
<= -0
c450:
-80 x284
-1 x560
<= -0
c451:
-80 x284
+1 x560
<= -0
c452:
-80 x285
-1 x561
<= -0
c453:
-80 x285
+1 x561
<= -0
c454:
-80 x286
-1 x562
<= -0
c455:
-80 x286
+1 x562
<= -0
c456:
-80 x287
-1 x563
<= -0
c457:
-80 x287
+1 x563
<= -0
c458:
-80 x288
-1 x564
<= -0
c459:
-80 x288
+1 x564
<= -0
c460:
-80 x289
-1 x565
<= -0
c461:
-80 x289
+1 x565
<= -0
c462:
-80 x290
-1 x566
<= -0
c463:
-80 x290
+1 x566
<= -0
c464:
-80 x291
-1 x567
<= -0
c465:
-80 x291
+1 x567
<= -0
c466:
-80 x292
-1 x568
<= -0
c467:
-80 x292
+1 x568
<= -0
c468:
-80 x293
-1 x569
<= -0
c469:
-80 x293
+1 x569
<= -0
c470:
-80 x294
-1 x570
<= -0
c471:
-80 x294
+1 x570
<= -0
c472:
-80 x295
-1 x571
<= -0
c473:
-80 x295
+1 x571
<= -0
c474:
-80 x296
-1 x572
<= -0
c475:
-80 x296
+1 x572
<= -0
c476:
-80 x297
-1 x573
<= -0
c477:
-80 x297
+1 x573
<= -0
c478:
-80 x298
-1 x574
<= -0
c479:
-80 x298
+1 x574
<= -0
c480:
-80 x299
-1 x575
<= -0
c481:
-80 x299
+1 x575
<= -0
c482:
-80 x300
-1 x576
<= -0
c483:
-80 x300
+1 x576
<= -0
c484:
-80 x301
-1 x577
<= -0
c485:
-80 x301
+1 x577
<= -0
c486:
-80 x302
-1 x578
<= -0
c487:
-80 x302
+1 x578
<= -0
c488:
-80 x303
-1 x579
<= -0
c489:
-80 x303
+1 x579
<= -0
c490:
-80 x304
-1 x580
<= -0
c491:
-80 x304
+1 x580
<= -0
c492:
-80 x305
-1 x581
<= -0
c493:
-80 x305
+1 x581
<= -0
c494:
-80 x306
-1 x582
<= -0
c495:
-80 x306
+1 x582
<= -0
c496:
-80 x307
-1 x583
<= -0
c497:
-80 x307
+1 x583
<= -0
c498:
-80 x308
-1 x584
<= -0
c499:
-80 x308
+1 x584
<= -0
c500:
-80 x309
-1 x585
<= -0
c501:
-80 x309
+1 x585
<= -0
c502:
-80 x310
-1 x586
<= -0
c503:
-80 x310
+1 x586
<= -0
c504:
-80 x311
-1 x587
<= -0
c505:
-80 x311
+1 x587
<= -0
c506:
-80 x312
-1 x588
<= -0
c507:
-80 x312
+1 x588
<= -0
c508:
-80 x313
-1 x589
<= -0
c509:
-80 x313
+1 x589
<= -0
c510:
-80 x314
-1 x590
<= -0
c511:
-80 x314
+1 x590
<= -0
c512:
-80 x315
-1 x591
<= -0
c513:
-80 x315
+1 x591
<= -0
c514:
-80 x316
-1 x592
<= -0
c515:
-80 x316
+1 x592
<= -0
c516:
-80 x317
-1 x593
<= -0
c517:
-80 x317
+1 x593
<= -0
c518:
-80 x318
-1 x594
<= -0
c519:
-80 x318
+1 x594
<= -0
c520:
-80 x319
-1 x595
<= -0
c521:
-80 x319
+1 x595
<= -0
c522:
-80 x320
-1 x596
<= -0
c523:
-80 x320
+1 x596
<= -0
c524:
-80 x321
-1 x597
<= -0
c525:
-80 x321
+1 x597
<= -0
c526:
-80 x322
-1 x598
<= -0
c527:
-80 x322
+1 x598
<= -0
c528:
-80 x323
-1 x599
<= -0
c529:
-80 x323
+1 x599
<= -0
c530:
-80 x324
-1 x600
<= -0
c531:
-80 x324
+1 x600
<= -0
c532:
-80 x325
-1 x601
<= -0
c533:
-80 x325
+1 x601
<= -0
c534:
-80 x326
-1 x602
<= -0
c535:
-80 x326
+1 x602
<= -0
c536:
-80 x327
-1 x603
<= -0
c537:
-80 x327
+1 x603
<= -0
c538:
-80 x328
-1 x604
<= -0
c539:
-80 x328
+1 x604
<= -0
c540:
-80 x329
-1 x605
<= -0
c541:
-80 x329
+1 x605
<= -0
c542:
-80 x330
-1 x606
<= -0
c543:
-80 x330
+1 x606
<= -0
c544:
-80 x331
-1 x607
<= -0
c545:
-80 x331
+1 x607
<= -0
c546:
-80 x332
-1 x608
<= -0
c547:
-80 x332
+1 x608
<= -0
c548:
-80 x333
-1 x609
<= -0
c549:
-80 x333
+1 x609
<= -0
c550:
-80 x334
-1 x610
<= -0
c551:
-80 x334
+1 x610
<= -0
c552:
-80 x335
-1 x611
<= -0
c553:
-80 x335
+1 x611
<= -0
c554:
-80 x336
-1 x612
<= -0
c555:
-80 x336
+1 x612
<= -0
c556:
-80 x337
-1 x613
<= -0
c557:
-80 x337
+1 x613
<= -0
c558:
-80 x338
-1 x614
<= -0
c559:
-80 x338
+1 x614
<= -0
c560:
-80 x339
-1 x615
<= -0
c561:
-80 x339
+1 x615
<= -0
c562:
-80 x340
-1 x616
<= -0
c563:
-80 x340
+1 x616
<= -0
c564:
-80 x341
-1 x617
<= -0
c565:
-80 x341
+1 x617
<= -0
c566:
-80 x342
-1 x618
<= -0
c567:
-80 x342
+1 x618
<= -0
c568:
-80 x343
-1 x619
<= -0
c569:
-80 x343
+1 x619
<= -0
c570:
-80 x344
-1 x620
<= -0
c571:
-80 x344
+1 x620
<= -0
c572:
-80 x345
-1 x621
<= -0
c573:
-80 x345
+1 x621
<= -0
c574:
-80 x346
-1 x622
<= -0
c575:
-80 x346
+1 x622
<= -0
c576:
-80 x347
-1 x623
<= -0
c577:
-80 x347
+1 x623
<= -0
c578:
-80 x348
-1 x624
<= -0
c579:
-80 x348
+1 x624
<= -0
c580:
-80 x349
-1 x625
<= -0
c581:
-80 x349
+1 x625
<= -0
c582:
-80 x350
-1 x626
<= -0
c583:
-80 x350
+1 x626
<= -0
c584:
-80 x351
-1 x627
<= -0
c585:
-80 x351
+1 x627
<= -0
c586:
-80 x352
-1 x628
<= -0
c587:
-80 x352
+1 x628
<= -0
c588:
-80 x353
-1 x629
<= -0
c589:
-80 x353
+1 x629
<= -0
c590:
-80 x354
-1 x630
<= -0
c591:
-80 x354
+1 x630
<= -0
c592:
-80 x355
-1 x631
<= -0
c593:
-80 x355
+1 x631
<= -0
c594:
-80 x356
-1 x632
<= -0
c595:
-80 x356
+1 x632
<= -0
c596:
-80 x357
-1 x633
<= -0
c597:
-80 x357
+1 x633
<= -0
c598:
-80 x358
-1 x634
<= -0
c599:
-80 x358
+1 x634
<= -0
c600:
-80 x359
-1 x635
<= -0
c601:
-80 x359
+1 x635
<= -0
c602:
-80 x360
-1 x636
<= -0
c603:
-80 x360
+1 x636
<= -0
c604:
-80 x361
-1 x637
<= -0
c605:
-80 x361
+1 x637
<= -0
c606:
-80 x362
-1 x638
<= -0
c607:
-80 x362
+1 x638
<= -0
c608:
-80 x363
-1 x639
<= -0
c609:
-80 x363
+1 x639
<= -0
c610:
-80 x364
-1 x640
<= -0
c611:
-80 x364
+1 x640
<= -0
c612:
-80 x365
-1 x641
<= -0
c613:
-80 x365
+1 x641
<= -0
c614:
-80 x366
-1 x642
<= -0
c615:
-80 x366
+1 x642
<= -0
c616:
-80 x367
-1 x643
<= -0
c617:
-80 x367
+1 x643
<= -0
c618:
-80 x368
-1 x644
<= -0
c619:
-80 x368
+1 x644
<= -0
c620:
-80 x369
-1 x645
<= -0
c621:
-80 x369
+1 x645
<= -0
c622:
-80 x370
-1 x646
<= -0
c623:
-80 x370
+1 x646
<= -0
c624:
-80 x371
-1 x647
<= -0
c625:
-80 x371
+1 x647
<= -0
c626:
-80 x372
-1 x648
<= -0
c627:
-80 x372
+1 x648
<= -0
c628:
-80 x373
-1 x649
<= -0
c629:
-80 x373
+1 x649
<= -0
c630:
-80 x374
-1 x650
<= -0
c631:
-80 x374
+1 x650
<= -0
c632:
-80 x375
-1 x651
<= -0
c633:
-80 x375
+1 x651
<= -0
c634:
-80 x376
-1 x652
<= -0
c635:
-80 x376
+1 x652
<= -0
c636:
-80 x377
-1 x653
<= -0
c637:
-80 x377
+1 x653
<= -0
c638:
-80 x378
-1 x654
<= -0
c639:
-80 x378
+1 x654
<= -0
c640:
-80 x379
-1 x655
<= -0
c641:
-80 x379
+1 x655
<= -0
c642:
-80 x380
-1 x656
<= -0
c643:
-80 x380
+1 x656
<= -0
c644:
-80 x381
-1 x657
<= -0
c645:
-80 x381
+1 x657
<= -0
c646:
-80 x382
-1 x658
<= -0
c647:
-80 x382
+1 x658
<= -0
c648:
-80 x383
-1 x659
<= -0
c649:
-80 x383
+1 x659
<= -0
c650:
-80 x384
-1 x660
<= -0
c651:
-80 x384
+1 x660
<= -0
c652:
-80 x385
-1 x661
<= -0
c653:
-80 x385
+1 x661
<= -0
c654:
-80 x386
-1 x662
<= -0
c655:
-80 x386
+1 x662
<= -0
c656:
-80 x387
-1 x663
<= -0
c657:
-80 x387
+1 x663
<= -0
c658:
-80 x388
-1 x664
<= -0
c659:
-80 x388
+1 x664
<= -0
c660:
-80 x389
-1 x665
<= -0
c661:
-80 x389
+1 x665
<= -0
c662:
-80 x390
-1 x666
<= -0
c663:
-80 x390
+1 x666
<= -0
c664:
-80 x391
-1 x667
<= -0
c665:
-80 x391
+1 x667
<= -0
c666:
-80 x392
-1 x668
<= -0
c667:
-80 x392
+1 x668
<= -0
c668:
-80 x393
-1 x669
<= -0
c669:
-80 x393
+1 x669
<= -0
c670:
-80 x394
-1 x670
<= -0
c671:
-80 x394
+1 x670
<= -0
c672:
-80 x395
-1 x671
<= -0
c673:
-80 x395
+1 x671
<= -0
c674:
-80 x396
-1 x672
<= -0
c675:
-80 x396
+1 x672
<= -0
c676:
-80 x397
-1 x673
<= -0
c677:
-80 x397
+1 x673
<= -0
c678:
-80 x398
-1 x674
<= -0
c679:
-80 x398
+1 x674
<= -0
c680:
-80 x399
-1 x675
<= -0
c681:
-80 x399
+1 x675
<= -0
c682:
-80 x400
-1 x676
<= -0
c683:
-80 x400
+1 x676
<= -0
c684:
-80 x401
-1 x677
<= -0
c685:
-80 x401
+1 x677
<= -0
c686:
-80 x402
-1 x678
<= -0
c687:
-80 x402
+1 x678
<= -0
c688:
-80 x403
-1 x679
<= -0
c689:
-80 x403
+1 x679
<= -0
c690:
-80 x404
-1 x680
<= -0
c691:
-80 x404
+1 x680
<= -0
c692:
-80 x405
-1 x681
<= -0
c693:
-80 x405
+1 x681
<= -0
c694:
-80 x406
-1 x682
<= -0
c695:
-80 x406
+1 x682
<= -0
c696:
-80 x407
-1 x683
<= -0
c697:
-80 x407
+1 x683
<= -0
c698:
-80 x408
-1 x684
<= -0
c699:
-80 x408
+1 x684
<= -0
c700:
-80 x409
-1 x685
<= -0
c701:
-80 x409
+1 x685
<= -0
c702:
-80 x410
-1 x686
<= -0
c703:
-80 x410
+1 x686
<= -0
c704:
-80 x411
-1 x687
<= -0
c705:
-80 x411
+1 x687
<= -0
c706:
-80 x412
-1 x688
<= -0
c707:
-80 x412
+1 x688
<= -0
c708:
-80 x413
-1 x689
<= -0
c709:
-80 x413
+1 x689
<= -0
c710:
+1 x1017
= -0
c711:
-1 x84
-1 x85
-1 x86
-1 x126
-1 x127
-1 x129
+1 x966
<= -0
c712:
-1 x84
+1 x966
>= -0
c713:
-1 x85
+1 x966
>= -0
c714:
-1 x86
+1 x966
>= -0
c715:
-1 x126
+1 x966
>= -0
c716:
-1 x127
+1 x966
>= -0
c717:
-1 x129
+1 x966
>= -0
c718:
-1 x498
-1 x499
-1 x500
+1 x540
+1 x541
+1 x543
+1 x636
+1 x637
+1 x638
-1 x678
-1 x679
-1 x681
<= +700
c719:
-1 x815
-1 x816
-1 x951
-1 x952
+1 x1018
= -0
c720:
-1 x123
-1 x124
-1 x125
-1 x126
+1 x967
<= -0
c721:
-1 x125
+1 x967
>= -0
c722:
-1 x126
+1 x967
>= -0
c723:
-1 x123
+1 x967
>= -0
c724:
-1 x124
+1 x967
>= -0
c725:
+1 x537
+1 x538
-1 x539
-1 x540
-1 x675
-1 x676
+1 x677
+1 x678
-2 x1068
= -0
c726:
-1 x806
-1 x810
-1 x820
-1 x945
-1 x946
-1 x947
+1 x1019
= -0
c727:
-1 x116
-1 x117
-1 x118
-1 x119
-1 x120
-1 x130
+1 x968
<= -0
c728:
-1 x116
+1 x968
>= -0
c729:
-1 x120
+1 x968
>= -0
c730:
-1 x130
+1 x968
>= -0
c731:
-1 x117
+1 x968
>= -0
c732:
-1 x118
+1 x968
>= -0
c733:
-1 x119
+1 x968
>= -0
c734:
-1 x530
+1 x531
+1 x532
+1 x533
-1 x534
-1 x544
+1 x668
-1 x669
-1 x670
-1 x671
+1 x672
+1 x682
-1 x1069
= -0
c735:
-1 x691
-1 x710
-1 x828
-1 x846
+1 x1020
= -0
c736:
-1 x0
-1 x1
-1 x18
-1 x20
+1 x969
<= -0
c737:
-1 x1
+1 x969
>= -0
c738:
-1 x20
+1 x969
>= -0
c739:
-1 x0
+1 x969
>= -0
c740:
-1 x18
+1 x969
>= -0
c741:
+1 x414
-1 x415
+1 x432
-1 x434
-1 x552
+1 x553
-1 x570
+1 x572
-2 x1070
= -0
c742:
-1 x738
-1 x792
-1 x877
-1 x878
-1 x932
+1 x1021
= -0
c743:
-1 x48
-1 x49
-1 x50
-1 x102
-1 x104
+1 x970
<= -0
c744:
-1 x48
+1 x970
>= -0
c745:
-1 x102
+1 x970
>= -0
c746:
-1 x49
+1 x970
>= -0
c747:
-1 x50
+1 x970
>= -0
c748:
-1 x104
+1 x970
>= -0
c749:
-1 x462
+1 x463
+1 x464
-1 x516
+1 x518
+1 x600
-1 x601
-1 x602
+1 x654
-1 x656
-2 x1071
= -0
c750:
-1 x787
-1 x788
-1 x924
-1 x927
+1 x1022
= -0
c751:
-1 x96
-1 x97
-1 x98
-1 x99
+1 x971
<= -0
c752:
-1 x97
+1 x971
>= -0
c753:
-1 x98
+1 x971
>= -0
c754:
-1 x96
+1 x971
>= -0
c755:
-1 x99
+1 x971
>= -0
c756:
+1 x510
-1 x511
-1 x512
+1 x513
-1 x648
+1 x649
+1 x650
-1 x651
-1 x1072
= -0
c757:
-1 x793
-1 x794
-1 x795
-1 x826
-1 x934
-1 x935
+1 x1023
= -0
c758:
-1 x103
-1 x104
-1 x105
-1 x106
-1 x107
-1 x136
+1 x972
<= -0
c759:
-1 x103
+1 x972
>= -0
c760:
-1 x104
+1 x972
>= -0
c761:
-1 x105
+1 x972
>= -0
c762:
-1 x136
+1 x972
>= -0
c763:
-1 x106
+1 x972
>= -0
c764:
-1 x107
+1 x972
>= -0
c765:
-1 x517
-1 x518
-1 x519
+1 x520
+1 x521
-1 x550
+1 x655
+1 x656
+1 x657
-1 x658
-1 x659
+1 x688
-1 x1073
= -0
c766:
-1 x769
-1 x770
-1 x906
-1 x912
-1 x953
+1 x1024
= -0
c767:
-1 x78
-1 x79
-1 x80
-1 x84
-1 x125
+1 x973
<= -0
c768:
-1 x79
+1 x973
>= -0
c769:
-1 x80
+1 x973
>= -0
c770:
-1 x78
+1 x973
>= -0
c771:
-1 x84
+1 x973
>= -0
c772:
-1 x125
+1 x973
>= -0
c773:
+1 x492
-1 x493
-1 x494
+1 x498
+1 x539
-1 x630
+1 x631
+1 x632
-1 x636
-1 x677
-1 x1074
= -0
c774:
-1 x755
-1 x803
-1 x804
-1 x890
-1 x891
-1 x892
+1 x1025
= -0
c775:
-1 x62
-1 x63
-1 x64
-1 x65
-1 x113
-1 x114
+1 x974
<= -0
c776:
-1 x65
+1 x974
>= -0
c777:
-1 x113
+1 x974
>= -0
c778:
-1 x114
+1 x974
>= -0
c779:
-1 x62
+1 x974
>= -0
c780:
-1 x63
+1 x974
>= -0
c781:
-1 x64
+1 x974
>= -0
c782:
+1 x476
+1 x477
+1 x478
-1 x479
-1 x527
-1 x528
-1 x614
-1 x615
-1 x616
+1 x617
+1 x665
+1 x666
-1 x1075
= -0
c783:
-1 x700
-1 x702
-1 x754
-1 x756
-1 x758
-1 x839
+1 x1026
= -0
c784:
-1 x10
-1 x11
-1 x12
-1 x64
-1 x66
-1 x68
+1 x975
<= -0
c785:
-1 x10
+1 x975
>= -0
c786:
-1 x12
+1 x975
>= -0
c787:
-1 x64
+1 x975
>= -0
c788:
-1 x66
+1 x975
>= -0
c789:
-1 x68
+1 x975
>= -0
c790:
-1 x11
+1 x975
>= -0
c791:
-1 x424
+1 x425
-1 x426
-1 x478
-1 x480
-1 x482
+1 x562
-1 x563
+1 x564
+1 x616
+1 x618
+1 x620
-1 x1076
= -0
c792:
-1 x730
-1 x731
-1 x782
-1 x783
-1 x870
-1 x923
-1 x925
+1 x1027
= -0
c793:
-1 x40
-1 x41
-1 x42
-1 x92
-1 x93
-1 x95
-1 x97
+1 x976
<= -0
c794:
-1 x40
+1 x976
>= -0
c795:
-1 x41
+1 x976
>= -0
c796:
-1 x92
+1 x976
>= -0
c797:
-1 x93
+1 x976
>= -0
c798:
-1 x42
+1 x976
>= -0
c799:
-1 x95
+1 x976
>= -0
c800:
-1 x97
+1 x976
>= -0
c801:
-1 x454
-1 x455
+1 x456
-1 x506
-1 x507
+1 x509
+1 x511
+1 x592
+1 x593
-1 x594
+1 x644
+1 x645
-1 x647
-1 x649
-2 x1077
= -0
c802:
-1 x799
-1 x800
-1 x802
-1 x885
-1 x886
-1 x887
-1 x942
+1 x1028
= -0
c803:
-1 x57
-1 x58
-1 x59
-1 x109
-1 x110
-1 x112
-1 x114
+1 x977
<= -0
c804:
-1 x109
+1 x977
>= -0
c805:
-1 x110
+1 x977
>= -0
c806:
-1 x112
+1 x977
>= -0
c807:
-1 x57
+1 x977
>= -0
c808:
-1 x58
+1 x977
>= -0
c809:
-1 x59
+1 x977
>= -0
c810:
-1 x114
+1 x977
>= -0
c811:
+1 x471
+1 x472
+1 x473
-1 x523
-1 x524
-1 x526
+1 x528
-1 x609
-1 x610
-1 x611
+1 x661
+1 x662
+1 x664
-1 x666
+2 x1078
= -0
c812:
-1 x789
-1 x790
-1 x791
-1 x825
-1 x930
-1 x931
-1 x962
+1 x1029
= -0
c813:
-1 x99
-1 x100
-1 x101
-1 x102
-1 x103
-1 x134
-1 x135
+1 x978
<= -0
c814:
-1 x99
+1 x978
>= -0
c815:
-1 x100
+1 x978
>= -0
c816:
-1 x101
+1 x978
>= -0
c817:
-1 x135
+1 x978
>= -0
c818:
-1 x102
+1 x978
>= -0
c819:
-1 x103
+1 x978
>= -0
c820:
-1 x134
+1 x978
>= -0
c821:
-1 x513
-1 x514
-1 x515
+1 x516
+1 x517
+1 x548
-1 x549
+1 x651
+1 x652
+1 x653
-1 x654
-1 x655
-1 x686
+1 x687
+1 x1079
= -0
c822:
-1 x767
-1 x768
-1 x814
-1 x903
-1 x904
-1 x950
+1 x1030
= -0
c823:
-1 x75
-1 x76
-1 x77
-1 x78
-1 x122
-1 x124
+1 x979
<= -0
c824:
-1 x77
+1 x979
>= -0
c825:
-1 x78
+1 x979
>= -0
c826:
-1 x124
+1 x979
>= -0
c827:
-1 x75
+1 x979
>= -0
c828:
-1 x76
+1 x979
>= -0
c829:
-1 x122
+1 x979
>= -0
c830:
+1 x489
+1 x490
-1 x491
-1 x492
+1 x536
-1 x538
-1 x627
-1 x628
+1 x629
+1 x630
-1 x674
+1 x676
+2 x1080
= -0
c831:
-1 x749
-1 x750
-1 x752
-1 x889
+1 x1031
= -0
c832:
-1 x59
-1 x60
-1 x61
-1 x62
+1 x980
<= -0
c833:
-1 x59
+1 x980
>= -0
c834:
-1 x60
+1 x980
>= -0
c835:
-1 x62
+1 x980
>= -0
c836:
-1 x61
+1 x980
>= -0
c837:
-1 x473
-1 x474
+1 x475
-1 x476
+1 x611
+1 x612
-1 x613
+1 x614
+2 x1081
= -0
c838:
-1 x694
-1 x833
-1 x864
-1 x866
+1 x1032
= -0
c839:
-1 x4
-1 x5
-1 x36
-1 x38
+1 x981
<= -0
c840:
-1 x4
+1 x981
>= -0
c841:
-1 x5
+1 x981
>= -0
c842:
-1 x36
+1 x981
>= -0
c843:
-1 x38
+1 x981
>= -0
c844:
-1 x418
+1 x419
+1 x450
+1 x452
+1 x556
-1 x557
-1 x588
-1 x590
+1 x1082
= -0
c845:
-1 x725
-1 x726
-1 x862
-1 x865
-1 x918
+1 x1033
= -0
c846:
-1 x34
-1 x35
-1 x36
-1 x37
-1 x90
+1 x982
<= -0
c847:
-1 x35
+1 x982
>= -0
c848:
-1 x36
+1 x982
>= -0
c849:
-1 x34
+1 x982
>= -0
c850:
-1 x37
+1 x982
>= -0
c851:
-1 x90
+1 x982
>= -0
c852:
+1 x448
-1 x449
-1 x450
+1 x451
+1 x504
-1 x586
+1 x587
+1 x588
-1 x589
-1 x642
+2 x1083
= -0
c853:
-1 x693
-1 x830
-1 x854
-1 x856
-1 x858
+1 x1034
= -0
c854:
-1 x2
-1 x3
-1 x26
-1 x28
-1 x30
+1 x983
<= -0
c855:
-1 x3
+1 x983
>= -0
c856:
-1 x2
+1 x983
>= -0
c857:
-1 x26
+1 x983
>= -0
c858:
-1 x28
+1 x983
>= -0
c859:
-1 x30
+1 x983
>= -0
c860:
+1 x416
-1 x417
+1 x440
+1 x442
+1 x444
-1 x554
+1 x555
-1 x578
-1 x580
-1 x582
+1 x1084
= -0
c861:
-1 x744
-1 x745
-1 x747
-1 x884
+1 x1035
= -0
c862:
-1 x54
-1 x55
-1 x56
-1 x57
+1 x984
<= -0
c863:
-1 x54
+1 x984
>= -0
c864:
-1 x55
+1 x984
>= -0
c865:
-1 x57
+1 x984
>= -0
c866:
-1 x56
+1 x984
>= -0
c867:
-1 x468
-1 x469
+1 x470
-1 x471
+1 x606
+1 x607
-1 x608
+1 x609
+2 x1085
= -0
c868:
-1 x706
-1 x764
-1 x842
-1 x843
-1 x900
+1 x1036
= -0
c869:
-1 x14
-1 x15
-1 x16
-1 x72
-1 x74
+1 x985
<= -0
c870:
-1 x16
+1 x985
>= -0
c871:
-1 x74
+1 x985
>= -0
c872:
-1 x14
+1 x985
>= -0
c873:
-1 x15
+1 x985
>= -0
c874:
-1 x72
+1 x985
>= -0
c875:
+1 x428
+1 x429
-1 x430
+1 x486
-1 x488
-1 x566
-1 x567
+1 x568
-1 x624
+1 x626
+1 x1086
= -0
c876:
-1 x698
-1 x746
-1 x748
-1 x837
-1 x888
+1 x1037
= -0
c877:
-1 x8
-1 x9
-1 x56
-1 x58
-1 x60
+1 x986
<= -0
c878:
-1 x8
+1 x986
>= -0
c879:
-1 x56
+1 x986
>= -0
c880:
-1 x58
+1 x986
>= -0
c881:
-1 x9
+1 x986
>= -0
c882:
-1 x60
+1 x986
>= -0
c883:
-1 x422
+1 x423
-1 x470
-1 x472
+1 x474
+1 x560
-1 x561
+1 x608
+1 x610
-1 x612
+2 x1087
= -0
c884:
-1 x690
-1 x701
-1 x703
-1 x705
-1 x707
+1 x1038
= -0
c885:
-1 x0
-1 x11
-1 x13
-1 x15
-1 x17
+1 x987
<= -0
c886:
-1 x0
+1 x987
>= -0
c887:
-1 x11
+1 x987
>= -0
c888:
-1 x13
+1 x987
>= -0
c889:
-1 x15
+1 x987
>= -0
c890:
-1 x17
+1 x987
>= -0
c891:
-1 x414
-1 x425
-1 x427
-1 x429
-1 x431
+1 x552
+1 x563
+1 x565
+1 x567
+1 x569
= -0
c892:
-1 x757
-1 x760
-1 x808
-1 x896
-1 x897
+1 x1039
= -0
c893:
-1 x67
-1 x68
-1 x69
-1 x70
-1 x118
+1 x988
<= -0
c894:
-1 x67
+1 x988
>= -0
c895:
-1 x70
+1 x988
>= -0
c896:
-1 x118
+1 x988
>= -0
c897:
-1 x68
+1 x988
>= -0
c898:
-1 x69
+1 x988
>= -0
c899:
-1 x481
+1 x482
+1 x483
-1 x484
-1 x532
+1 x619
-1 x620
-1 x621
+1 x622
+1 x670
= -0
c900:
-1 x692
-1 x713
-1 x715
-1 x829
-1 x849
+1 x1040
= -0
c901:
-1 x1
-1 x2
-1 x21
-1 x23
-1 x25
+1 x989
<= -0
c902:
-1 x2
+1 x989
>= -0
c903:
-1 x23
+1 x989
>= -0
c904:
-1 x25
+1 x989
>= -0
c905:
-1 x1
+1 x989
>= -0
c906:
-1 x21
+1 x989
>= -0
c907:
+1 x415
-1 x416
+1 x435
-1 x437
-1 x439
-1 x553
+1 x554
-1 x573
+1 x575
+1 x577
= -0
c908:
-1 x762
-1 x763
-1 x765
-1 x809
-1 x811
-1 x898
-1 x899
+1 x1041
= -0
c909:
-1 x70
-1 x71
-1 x72
-1 x73
-1 x75
-1 x119
-1 x121
+1 x990
<= -0
c910:
-1 x72
+1 x990
>= -0
c911:
-1 x73
+1 x990
>= -0
c912:
-1 x75
+1 x990
>= -0
c913:
-1 x119
+1 x990
>= -0
c914:
-1 x121
+1 x990
>= -0
c915:
-1 x70
+1 x990
>= -0
c916:
-1 x71
+1 x990
>= -0
c917:
+1 x484
+1 x485
-1 x486
-1 x487
-1 x489
-1 x533
-1 x535
-1 x622
-1 x623
+1 x624
+1 x625
+1 x627
+1 x671
+1 x673
= -0
c918:
-1 x718
-1 x719
-1 x855
-1 x911
+1 x1042
= -0
c919:
-1 x27
-1 x28
-1 x29
-1 x83
+1 x991
<= -0
c920:
-1 x28
+1 x991
>= -0
c921:
-1 x29
+1 x991
>= -0
c922:
-1 x27
+1 x991
>= -0
c923:
-1 x83
+1 x991
>= -0
c924:
+1 x441
-1 x442
-1 x443
+1 x497
-1 x579
+1 x580
+1 x581
-1 x635
= -0
c925:
-1 x697
-1 x737
-1 x739
-1 x741
-1 x836
-1 x881
-1 x883
+1 x1043
= -0
c926:
-1 x7
-1 x8
-1 x47
-1 x49
-1 x51
-1 x53
-1 x55
+1 x992
<= -0
c927:
-1 x7
+1 x992
>= -0
c928:
-1 x47
+1 x992
>= -0
c929:
-1 x49
+1 x992
>= -0
c930:
-1 x51
+1 x992
>= -0
c931:
-1 x8
+1 x992
>= -0
c932:
-1 x53
+1 x992
>= -0
c933:
-1 x55
+1 x992
>= -0
c934:
-1 x421
+1 x422
-1 x461
-1 x463
-1 x465
+1 x467
+1 x469
+1 x559
-1 x560
+1 x599
+1 x601
+1 x603
-1 x605
-1 x607
= -0
c935:
-1 x727
-1 x728
-1 x729
-1 x868
-1 x919
+1 x1044
= -0
c936:
-1 x37
-1 x38
-1 x39
-1 x40
-1 x91
+1 x993
<= -0
c937:
-1 x37
+1 x993
>= -0
c938:
-1 x38
+1 x993
>= -0
c939:
-1 x39
+1 x993
>= -0
c940:
-1 x40
+1 x993
>= -0
c941:
-1 x91
+1 x993
>= -0
c942:
-1 x451
-1 x452
-1 x453
+1 x454
+1 x505
+1 x589
+1 x590
+1 x591
-1 x592
-1 x643
= -0
c943:
-1 x699
-1 x751
-1 x753
-1 x838
+1 x1045
= -0
c944:
-1 x9
-1 x10
-1 x61
-1 x63
+1 x994
<= -0
c945:
-1 x9
+1 x994
>= -0
c946:
-1 x61
+1 x994
>= -0
c947:
-1 x63
+1 x994
>= -0
c948:
-1 x10
+1 x994
>= -0
c949:
-1 x423
+1 x424
-1 x475
-1 x477
+1 x561
-1 x562
+1 x613
+1 x615
= -0
c950:
-1 x784
-1 x785
-1 x786
-1 x819
-1 x956
-1 x958
-1 x959
-1 x961
-1 x963
+1 x1046
= -0
c951:
-1 x94
-1 x95
-1 x96
-1 x128
-1 x129
-1 x130
-1 x131
-1 x133
-1 x135
+1 x995
<= -0
c952:
-1 x94
+1 x995
>= -0
c953:
-1 x95
+1 x995
>= -0
c954:
-1 x96
+1 x995
>= -0
c955:
-1 x129
+1 x995
>= -0
c956:
-1 x128
+1 x995
>= -0
c957:
-1 x130
+1 x995
>= -0
c958:
-1 x131
+1 x995
>= -0
c959:
-1 x133
+1 x995
>= -0
c960:
-1 x135
+1 x995
>= -0
c961:
-1 x508
-1 x509
-1 x510
+1 x542
-1 x543
+1 x544
+1 x545
+1 x547
+1 x549
+1 x646
+1 x647
+1 x648
-1 x680
+1 x681
-1 x682
-1 x683
-1 x685
-1 x687
= -0
c962:
-1 x732
-1 x733
-1 x734
-1 x873
-1 x926
-1 x928
+1 x1047
= -0
c963:
-1 x42
-1 x43
-1 x44
-1 x45
-1 x98
-1 x100
+1 x996
<= -0
c964:
-1 x42
+1 x996
>= -0
c965:
-1 x43
+1 x996
>= -0
c966:
-1 x44
+1 x996
>= -0
c967:
-1 x45
+1 x996
>= -0
c968:
-1 x98
+1 x996
>= -0
c969:
-1 x100
+1 x996
>= -0
c970:
-1 x456
-1 x457
-1 x458
+1 x459
+1 x512
+1 x514
+1 x594
+1 x595
+1 x596
-1 x597
-1 x650
-1 x652
= -0
c971:
-1 x779
-1 x780
-1 x781
-1 x916
-1 x920
+1 x1048
= -0
c972:
-1 x88
-1 x89
-1 x90
-1 x91
-1 x92
+1 x997
<= -0
c973:
-1 x89
+1 x997
>= -0
c974:
-1 x90
+1 x997
>= -0
c975:
-1 x91
+1 x997
>= -0
c976:
-1 x88
+1 x997
>= -0
c977:
-1 x92
+1 x997
>= -0
c978:
+1 x502
-1 x503
-1 x504
-1 x505
+1 x506
-1 x640
+1 x641
+1 x642
+1 x643
-1 x644
= -0
c979:
-1 x805
-1 x807
-1 x893
-1 x894
-1 x895
+1 x1049
= -0
c980:
-1 x65
-1 x66
-1 x67
-1 x115
-1 x117
+1 x998
<= -0
c981:
-1 x115
+1 x998
>= -0
c982:
-1 x117
+1 x998
>= -0
c983:
-1 x65
+1 x998
>= -0
c984:
-1 x66
+1 x998
>= -0
c985:
-1 x67
+1 x998
>= -0
c986:
+1 x479
+1 x480
+1 x481
-1 x529
-1 x531
-1 x617
-1 x618
-1 x619
+1 x667
+1 x669
= -0
c987:
-1 x735
-1 x736
-1 x875
-1 x876
-1 x929
+1 x1050
= -0
c988:
-1 x45
-1 x46
-1 x47
-1 x48
-1 x101
+1 x999
<= -0
c989:
-1 x45
+1 x999
>= -0
c990:
-1 x46
+1 x999
>= -0
c991:
-1 x47
+1 x999
>= -0
c992:
-1 x48
+1 x999
>= -0
c993:
-1 x101
+1 x999
>= -0
c994:
-1 x459
-1 x460
+1 x461
+1 x462
+1 x515
+1 x597
+1 x598
-1 x599
-1 x600
-1 x653
= -0
c995:
-1 x711
-1 x712
-1 x766
-1 x847
-1 x848
-1 x901
-1 x902
+1 x1051
= -0
c996:
-1 x19
-1 x20
-1 x21
-1 x22
-1 x73
-1 x74
-1 x76
+1 x1000
<= -0
c997:
-1 x21
+1 x1000
>= -0
c998:
-1 x22
+1 x1000
>= -0
c999:
-1 x76
+1 x1000
>= -0
c1000:
-1 x19
+1 x1000
>= -0
c1001:
-1 x20
+1 x1000
>= -0
c1002:
-1 x73
+1 x1000
>= -0
c1003:
-1 x74
+1 x1000
>= -0
c1004:
+1 x433
+1 x434
-1 x435
-1 x436
+1 x487
+1 x488
-1 x490
-1 x571
-1 x572
+1 x573
+1 x574
-1 x625
-1 x626
+1 x628
= -0
c1005:
-1 x831
-1 x832
-1 x859
-1 x861
-1 x863
+1 x1052
= -0
c1006:
-1 x3
-1 x4
-1 x31
-1 x33
-1 x35
+1 x1001
<= -0
c1007:
-1 x3
+1 x1001
>= -0
c1008:
-1 x4
+1 x1001
>= -0
c1009:
-1 x31
+1 x1001
>= -0
c1010:
-1 x33
+1 x1001
>= -0
c1011:
-1 x35
+1 x1001
>= -0
c1012:
+1 x417
+1 x418
+1 x445
+1 x447
+1 x449
-1 x555
-1 x556
-1 x583
-1 x585
-1 x587
= -0
c1013:
-1 x823
-1 x824
-1 x960
-1 x964
-1 x965
+1 x1053
= -0
c1014:
-1 x132
-1 x133
-1 x134
-1 x136
-1 x137
+1 x1002
<= -0
c1015:
-1 x133
+1 x1002
>= -0
c1016:
-1 x134
+1 x1002
>= -0
c1017:
-1 x132
+1 x1002
>= -0
c1018:
-1 x136
+1 x1002
>= -0
c1019:
-1 x137
+1 x1002
>= -0
c1020:
+1 x546
-1 x547
-1 x548
+1 x550
+1 x551
-1 x684
+1 x685
+1 x686
-1 x688
-1 x689
= -0
c1021:
-1 x812
-1 x813
-1 x817
-1 x818
-1 x948
-1 x949
+1 x1054
= -0
c1022:
-1 x120
-1 x121
-1 x122
-1 x123
-1 x127
-1 x128
+1 x1003
<= -0
c1023:
-1 x122
+1 x1003
>= -0
c1024:
-1 x123
+1 x1003
>= -0
c1025:
-1 x127
+1 x1003
>= -0
c1026:
-1 x128
+1 x1003
>= -0
c1027:
-1 x120
+1 x1003
>= -0
c1028:
-1 x121
+1 x1003
>= -0
c1029:
+1 x534
+1 x535
-1 x536
-1 x537
-1 x541
-1 x542
-1 x672
-1 x673
+1 x674
+1 x675
+1 x679
+1 x680
= -0
c1030:
-1 x740
-1 x879
-1 x880
-1 x933
+1 x1055
= -0
c1031:
-1 x50
-1 x51
-1 x52
-1 x105
+1 x1004
<= -0
c1032:
-1 x50
+1 x1004
>= -0
c1033:
-1 x51
+1 x1004
>= -0
c1034:
-1 x52
+1 x1004
>= -0
c1035:
-1 x105
+1 x1004
>= -0
c1036:
-1 x464
+1 x465
+1 x466
+1 x519
+1 x602
-1 x603
-1 x604
-1 x657
= -0
c1037:
-1 x704
-1 x759
-1 x761
-1 x840
-1 x841
+1 x1056
= -0
c1038:
-1 x12
-1 x13
-1 x14
-1 x69
-1 x71
+1 x1005
<= -0
c1039:
-1 x14
+1 x1005
>= -0
c1040:
-1 x69
+1 x1005
>= -0
c1041:
-1 x71
+1 x1005
>= -0
c1042:
-1 x12
+1 x1005
>= -0
c1043:
-1 x13
+1 x1005
>= -0
c1044:
+1 x426
+1 x427
-1 x428
-1 x483
-1 x485
-1 x564
-1 x565
+1 x566
+1 x621
+1 x623
= -0
c1045:
-1 x708
-1 x709
-1 x844
-1 x845
+1 x1057
= -0
c1046:
-1 x16
-1 x17
-1 x18
-1 x19
+1 x1006
<= -0
c1047:
-1 x18
+1 x1006
>= -0
c1048:
-1 x19
+1 x1006
>= -0
c1049:
-1 x16
+1 x1006
>= -0
c1050:
-1 x17
+1 x1006
>= -0
c1051:
+1 x430
+1 x431
-1 x432
-1 x433
-1 x568
-1 x569
+1 x570
+1 x571
= -0
c1052:
-1 x777
-1 x778
-1 x914
-1 x921
-1 x922
+1 x1058
= -0
c1053:
-1 x86
-1 x87
-1 x88
-1 x93
-1 x94
+1 x1007
<= -0
c1054:
-1 x87
+1 x1007
>= -0
c1055:
-1 x88
+1 x1007
>= -0
c1056:
-1 x86
+1 x1007
>= -0
c1057:
-1 x93
+1 x1007
>= -0
c1058:
-1 x94
+1 x1007
>= -0
c1059:
+1 x500
-1 x501
-1 x502
+1 x507
+1 x508
-1 x638
+1 x639
+1 x640
-1 x645
-1 x646
= -0
c1060:
-1 x714
-1 x771
-1 x850
-1 x851
-1 x905
-1 x907
+1 x1059
= -0
c1061:
-1 x22
-1 x23
-1 x24
-1 x77
-1 x79
-1 x81
+1 x1008
<= -0
c1062:
-1 x24
+1 x1008
>= -0
c1063:
-1 x81
+1 x1008
>= -0
c1064:
-1 x22
+1 x1008
>= -0
c1065:
-1 x23
+1 x1008
>= -0
c1066:
-1 x77
+1 x1008
>= -0
c1067:
-1 x79
+1 x1008
>= -0
c1068:
+1 x436
+1 x437
-1 x438
+1 x491
+1 x493
-1 x495
-1 x574
-1 x575
+1 x576
-1 x629
-1 x631
+1 x633
= -0
c1069:
-1 x742
-1 x743
-1 x796
-1 x798
-1 x882
-1 x938
+1 x1060
= -0
c1070:
-1 x52
-1 x53
-1 x54
-1 x106
-1 x108
-1 x110
+1 x1009
<= -0
c1071:
-1 x52
+1 x1009
>= -0
c1072:
-1 x53
+1 x1009
>= -0
c1073:
-1 x106
+1 x1009
>= -0
c1074:
-1 x108
+1 x1009
>= -0
c1075:
-1 x54
+1 x1009
>= -0
c1076:
-1 x110
+1 x1009
>= -0
c1077:
-1 x466
-1 x467
+1 x468
-1 x520
-1 x522
+1 x524
+1 x604
+1 x605
-1 x606
+1 x658
+1 x660
-1 x662
= -0
c1078:
-1 x720
-1 x721
-1 x857
-1 x860
+1 x1061
= -0
c1079:
-1 x29
-1 x30
-1 x31
-1 x32
+1 x1010
<= -0
c1080:
-1 x30
+1 x1010
>= -0
c1081:
-1 x31
+1 x1010
>= -0
c1082:
-1 x29
+1 x1010
>= -0
c1083:
-1 x32
+1 x1010
>= -0
c1084:
+1 x443
-1 x444
-1 x445
+1 x446
-1 x581
+1 x582
+1 x583
-1 x584
= -0
c1085:
-1 x821
-1 x822
-1 x939
-1 x940
-1 x941
-1 x943
-1 x944
+1 x1062
= -0
c1086:
-1 x111
-1 x112
-1 x113
-1 x115
-1 x116
-1 x131
-1 x132
+1 x1011
<= -0
c1087:
-1 x131
+1 x1011
>= -0
c1088:
-1 x132
+1 x1011
>= -0
c1089:
-1 x111
+1 x1011
>= -0
c1090:
-1 x112
+1 x1011
>= -0
c1091:
-1 x113
+1 x1011
>= -0
c1092:
-1 x115
+1 x1011
>= -0
c1093:
-1 x116
+1 x1011
>= -0
c1094:
+1 x525
+1 x526
+1 x527
+1 x529
+1 x530
-1 x545
-1 x546
-1 x663
-1 x664
-1 x665
-1 x667
-1 x668
+1 x683
+1 x684
= -0
c1095:
-1 x797
-1 x801
-1 x827
-1 x936
-1 x937
+1 x1063
= -0
c1096:
-1 x107
-1 x108
-1 x109
-1 x111
-1 x137
+1 x1012
<= -0
c1097:
-1 x107
+1 x1012
>= -0
c1098:
-1 x111
+1 x1012
>= -0
c1099:
-1 x137
+1 x1012
>= -0
c1100:
-1 x108
+1 x1012
>= -0
c1101:
-1 x109
+1 x1012
>= -0
c1102:
-1 x521
+1 x522
+1 x523
-1 x525
-1 x551
+1 x659
-1 x660
-1 x661
+1 x663
+1 x689
= -0
c1103:
-1 x722
-1 x723
-1 x724
-1 x773
-1 x908
-1 x909
-1 x910
-1 x913
-1 x915
-1 x917
+1 x1064
= -0
c1104:
-1 x32
-1 x33
-1 x34
-1 x80
-1 x81
-1 x82
-1 x83
-1 x85
-1 x87
-1 x89
+1 x1013
<= -0
c1105:
-1 x32
+1 x1013
>= -0
c1106:
-1 x33
+1 x1013
>= -0
c1107:
-1 x34
+1 x1013
>= -0
c1108:
-1 x83
+1 x1013
>= -0
c1109:
-1 x80
+1 x1013
>= -0
c1110:
-1 x81
+1 x1013
>= -0
c1111:
-1 x82
+1 x1013
>= -0
c1112:
-1 x85
+1 x1013
>= -0
c1113:
-1 x87
+1 x1013
>= -0
c1114:
-1 x89
+1 x1013
>= -0
c1115:
-1 x446
-1 x447
-1 x448
+1 x494
+1 x495
+1 x496
-1 x497
+1 x499
+1 x501
+1 x503
+1 x584
+1 x585
+1 x586
-1 x632
-1 x633
-1 x634
+1 x635
-1 x637
-1 x639
-1 x641
= -0
c1116:
-1 x695
-1 x834
-1 x867
-1 x869
-1 x871
+1 x1065
= -0
c1117:
-1 x5
-1 x6
-1 x39
-1 x41
-1 x43
+1 x1014
<= -0
c1118:
-1 x5
+1 x1014
>= -0
c1119:
-1 x6
+1 x1014
>= -0
c1120:
-1 x39
+1 x1014
>= -0
c1121:
-1 x41
+1 x1014
>= -0
c1122:
-1 x43
+1 x1014
>= -0
c1123:
-1 x419
+1 x420
+1 x453
+1 x455
+1 x457
+1 x557
-1 x558
-1 x591
-1 x593
-1 x595
= -0
c1124:
-1 x716
-1 x717
-1 x772
-1 x852
-1 x853
+1 x1066
= -0
c1125:
-1 x24
-1 x25
-1 x26
-1 x27
-1 x82
+1 x1015
<= -0
c1126:
-1 x26
+1 x1015
>= -0
c1127:
-1 x27
+1 x1015
>= -0
c1128:
-1 x82
+1 x1015
>= -0
c1129:
-1 x24
+1 x1015
>= -0
c1130:
-1 x25
+1 x1015
>= -0
c1131:
+1 x438
+1 x439
-1 x440
-1 x441
-1 x496
-1 x576
-1 x577
+1 x578
+1 x579
+1 x634
= -0
c1132:
-1 x696
-1 x835
-1 x872
-1 x874
+1 x1067
= -0
c1133:
-1 x6
-1 x7
-1 x44
-1 x46
+1 x1016
<= -0
c1134:
-1 x6
+1 x1016
>= -0
c1135:
-1 x7
+1 x1016
>= -0
c1136:
-1 x44
+1 x1016
>= -0
c1137:
-1 x46
+1 x1016
>= -0
c1138:
-1 x420
+1 x421
+1 x458
+1 x460
+1 x558
-1 x559
-1 x596
-1 x598
= -0
c1139:
+38 x0
+14 x1
+47 x2
+25 x3
+37 x4
+19 x5
+24 x6
+28 x7
+24 x8
+8 x9
+35 x10
+51 x11
+11 x12
+40 x13
+31 x14
+24 x15
+13 x16
+30 x17
+10 x18
+26 x19
+30 x20
+30 x21
+13 x22
+31 x23
+20 x24
+21 x25
+30 x26
+22 x27
+13 x28
+6 x29
+11 x30
+16 x31
+20 x32
+19 x33
+25 x34
+21 x35
+17 x36
+10 x37
+11 x38
+26 x39
+24 x40
+34 x41
+13 x42
+30 x43
+12 x44
+7 x45
+11 x46
+19 x47
+10 x48
+11 x49
+7 x50
+6 x51
+9 x52
+11 x53
+14 x54
+20 x55
+4 x56
+7 x57
+10 x58
+14 x59
+7 x60
+3 x61
+12 x62
+14 x63
+22 x64
+20 x65
+20 x66
+6 x67
+16 x68
+18 x69
+14 x70
+17 x71
+23 x72
+23 x73
+26 x74
+22 x75
+4 x76
+13 x77
+13 x78
+1 x79
+24 x80
+24 x81
+26 x82
+18 x83
+17 x84
+30 x85
+23 x86
+31 x87
+9 x88
+27 x89
+18 x90
+13 x91
+14 x92
+8 x93
+16 x94
+15 x95
+13 x96
+5 x97
+9 x98
+14 x99
+11 x100
+9 x101
+2 x102
+13 x103
+12 x104
+7 x105
+6 x106
+3 x107
+6 x108
+12 x109
+10 x110
+11 x111
+18 x112
+23 x113
+14 x114
+16 x115
+16 x116
+6 x117
+9 x118
+18 x119
+13 x120
+19 x121
+14 x122
+8 x123
+9 x124
+14 x125
+9 x126
+11 x127
+24 x128
+21 x129
+24 x130
+15 x131
+5 x132
+10 x133
+18 x134
+19 x135
+11 x136
+10 x137
<= +5000
c1140:
+1 x0
+1 x1
+1 x2
+1 x3
+1 x4
+1 x5
+1 x6
+1 x7
+1 x8
+1 x9
+1 x10
+1 x11
+1 x12
+1 x13
+1 x14
+1 x15
+1 x16
+1 x17
+1 x18
+1 x19
+1 x20
+1 x21
+1 x22
+1 x23
+1 x24
+1 x25
+1 x26
+1 x27
+1 x28
+1 x29
+1 x30
+1 x31
+1 x32
+1 x33
+1 x34
+1 x35
+1 x36
+1 x37
+1 x38
+1 x39
+1 x40
+1 x41
+1 x42
+1 x43
+1 x44
+1 x45
+1 x46
+1 x47
+1 x48
+1 x49
+1 x50
+1 x51
+1 x52
+1 x53
+1 x54
+1 x55
+1 x56
+1 x57
+1 x58
+1 x59
+1 x60
+1 x61
+1 x62
+1 x63
+1 x64
+1 x65
+1 x66
+1 x67
+1 x68
+1 x69
+1 x70
+1 x71
+1 x72
+1 x73
+1 x74
+1 x75
+1 x76
+1 x77
+1 x78
+1 x79
+1 x80
+1 x81
+1 x82
+1 x83
+1 x84
+1 x85
+1 x86
+1 x87
+1 x88
+1 x89
+1 x90
+1 x91
+1 x92
+1 x93
+1 x94
+1 x95
+1 x96
+1 x97
+1 x98
+1 x99
+1 x100
+1 x101
+1 x102
+1 x103
+1 x104
+1 x105
+1 x106
+1 x107
+1 x108
+1 x109
+1 x110
+1 x111
+1 x112
+1 x113
+1 x114
+1 x115
+1 x116
+1 x117
+1 x118
+1 x119
+1 x120
+1 x121
+1 x122
+1 x123
+1 x124
+1 x125
+1 x126
+1 x127
+1 x128
+1 x129
+1 x130
+1 x131
+1 x132
+1 x133
+1 x134
+1 x135
+1 x136
+1 x137
>= -0
c1141:
+1 x0
+1 x1
+1 x2
+1 x3
+1 x4
+1 x5
+1 x6
+1 x7
+1 x8
+1 x9
+1 x10
+1 x11
+1 x12
+1 x13
+1 x14
+1 x15
+1 x16
+1 x17
+1 x18
+1 x19
+1 x20
+1 x21
+1 x22
+1 x23
+1 x24
+1 x25
+1 x26
+1 x27
+1 x28
+1 x29
+1 x30
+1 x31
+1 x32
+1 x33
+1 x34
+1 x35
+1 x36
+1 x37
+1 x38
+1 x39
+1 x40
+1 x41
+1 x42
+1 x43
+1 x44
+1 x45
+1 x46
+1 x47
+1 x48
+1 x49
+1 x50
+1 x51
+1 x52
+1 x53
+1 x54
+1 x55
+1 x56
+1 x57
+1 x58
+1 x59
+1 x60
+1 x61
+1 x62
+1 x63
+1 x64
+1 x65
+1 x66
+1 x67
+1 x68
+1 x69
+1 x70
+1 x71
+1 x72
+1 x73
+1 x74
+1 x75
+1 x76
+1 x77
+1 x78
+1 x79
+1 x80
+1 x81
+1 x82
+1 x83
+1 x84
+1 x85
+1 x86
+1 x87
+1 x88
+1 x89
+1 x90
+1 x91
+1 x92
+1 x93
+1 x94
+1 x95
+1 x96
+1 x97
+1 x98
+1 x99
+1 x100
+1 x101
+1 x102
+1 x103
+1 x104
+1 x105
+1 x106
+1 x107
+1 x108
+1 x109
+1 x110
+1 x111
+1 x112
+1 x113
+1 x114
+1 x115
+1 x116
+1 x117
+1 x118
+1 x119
+1 x120
+1 x121
+1 x122
+1 x123
+1 x124
+1 x125
+1 x126
+1 x127
+1 x128
+1 x129
+1 x130
+1 x131
+1 x132
+1 x133
+1 x134
+1 x135
+1 x136
+1 x137
-1 x966
-1 x967
-1 x968
-1 x969
-1 x970
-1 x971
-1 x972
-1 x973
-1 x974
-1 x975
-1 x976
-1 x977
-1 x978
-1 x979
-1 x980
-1 x981
-1 x982
-1 x983
-1 x984
-1 x985
-1 x986
-1 x987
-1 x988
-1 x989
-1 x990
-1 x991
-1 x992
-1 x993
-1 x994
-1 x995
-1 x996
-1 x997
-1 x998
-1 x999
-1 x1000
-1 x1001
-1 x1002
-1 x1003
-1 x1004
-1 x1005
-1 x1006
-1 x1007
-1 x1008
-1 x1009
-1 x1010
-1 x1011
-1 x1012
-1 x1013
-1 x1014
-1 x1015
-1 x1016
>= -1
c1142:
+1 x0
+1 x1
+1 x2
+1 x3
+1 x4
+1 x5
+1 x6
+1 x7
+1 x8
+1 x9
+1 x10
+1 x11
+1 x12
+1 x13
+1 x14
+1 x15
+1 x16
+1 x17
+1 x18
+1 x19
+1 x20
+1 x21
+1 x22
+1 x23
+1 x24
+1 x25
+1 x26
+1 x27
+1 x28
+1 x29
+1 x30
+1 x31
+1 x32
+1 x33
+1 x34
+1 x35
+1 x36
+1 x37
+1 x38
+1 x39
+1 x40
+1 x41
+1 x42
+1 x43
+1 x44
+1 x45
+1 x46
+1 x47
+1 x48
+1 x49
+1 x50
+1 x51
+1 x52
+1 x53
+1 x54
+1 x55
+1 x56
+1 x57
+1 x58
+1 x59
+1 x60
+1 x61
+1 x62
+1 x63
+1 x64
+1 x65
+1 x66
+1 x67
+1 x68
+1 x69
+1 x70
+1 x71
+1 x72
+1 x73
+1 x74
+1 x75
+1 x76
+1 x77
+1 x78
+1 x79
+1 x80
+1 x81
+1 x82
+1 x83
+1 x84
+1 x85
+1 x86
+1 x87
+1 x88
+1 x89
+1 x90
+1 x91
+1 x92
+1 x93
+1 x94
+1 x95
+1 x96
+1 x97
+1 x98
+1 x99
+1 x100
+1 x101
+1 x102
+1 x103
+1 x104
+1 x105
+1 x106
+1 x107
+1 x108
+1 x109
+1 x110
+1 x111
+1 x112
+1 x113
+1 x114
+1 x115
+1 x116
+1 x117
+1 x118
+1 x119
+1 x120
+1 x121
+1 x122
+1 x123
+1 x124
+1 x125
+1 x126
+1 x127
+1 x128
+1 x129
+1 x130
+1 x131
+1 x132
+1 x133
+1 x134
+1 x135
+1 x136
+1 x137
-1 x966
-1 x967
-1 x968
-1 x969
-1 x970
-1 x971
-1 x972
-1 x973
-1 x974
-1 x975
-1 x976
-1 x977
-1 x978
-1 x979
-1 x980
-1 x981
-1 x982
-1 x983
-1 x984
-1 x985
-1 x986
-1 x987
-1 x988
-1 x989
-1 x990
-1 x991
-1 x992
-1 x993
-1 x994
-1 x995
-1 x996
-1 x997
-1 x998
-1 x999
-1 x1000
-1 x1001
-1 x1002
-1 x1003
-1 x1004
-1 x1005
-1 x1006
-1 x1007
-1 x1008
-1 x1009
-1 x1010
-1 x1011
-1 x1012
-1 x1013
-1 x1014
-1 x1015
-1 x1016
+1 x1088
<= -0
c1143:
+1 x0
+1 x1
+1 x2
+1 x3
+1 x4
+1 x5
+1 x6
+1 x7
+1 x8
+1 x9
+1 x10
+1 x11
+1 x12
+1 x13
+1 x14
+1 x15
+1 x16
+1 x17
+1 x18
+1 x19
+1 x20
+1 x21
+1 x22
+1 x23
+1 x24
+1 x25
+1 x26
+1 x27
+1 x28
+1 x29
+1 x30
+1 x31
+1 x32
+1 x33
+1 x34
+1 x35
+1 x36
+1 x37
+1 x38
+1 x39
+1 x40
+1 x41
+1 x42
+1 x43
+1 x44
+1 x45
+1 x46
+1 x47
+1 x48
+1 x49
+1 x50
+1 x51
+1 x52
+1 x53
+1 x54
+1 x55
+1 x56
+1 x57
+1 x58
+1 x59
+1 x60
+1 x61
+1 x62
+1 x63
+1 x64
+1 x65
+1 x66
+1 x67
+1 x68
+1 x69
+1 x70
+1 x71
+1 x72
+1 x73
+1 x74
+1 x75
+1 x76
+1 x77
+1 x78
+1 x79
+1 x80
+1 x81
+1 x82
+1 x83
+1 x84
+1 x85
+1 x86
+1 x87
+1 x88
+1 x89
+1 x90
+1 x91
+1 x92
+1 x93
+1 x94
+1 x95
+1 x96
+1 x97
+1 x98
+1 x99
+1 x100
+1 x101
+1 x102
+1 x103
+1 x104
+1 x105
+1 x106
+1 x107
+1 x108
+1 x109
+1 x110
+1 x111
+1 x112
+1 x113
+1 x114
+1 x115
+1 x116
+1 x117
+1 x118
+1 x119
+1 x120
+1 x121
+1 x122
+1 x123
+1 x124
+1 x125
+1 x126
+1 x127
+1 x128
+1 x129
+1 x130
+1 x131
+1 x132
+1 x133
+1 x134
+1 x135
+1 x136
+1 x137
-51 x1088
<= -0
c1144:
-20 x138
+1 x1089
<= -0
c1145:
+1 x138
-1 x1089
<= -0
c1146:
-10000 x138
+1 x690
<= -0
c1147:
-10000 x138
-1 x690
<= -0
c1148:
+10000 x138
-38 x414
+1 x690
-1 x1020
<= +10000
c1149:
-10000 x138
-38 x414
+1 x690
-1 x1020
>= -10000
c1150:
-20 x139
+1 x1090
<= -0
c1151:
+1 x139
-1 x1090
<= -0
c1152:
-10000 x139
+1 x691
<= -0
c1153:
-10000 x139
-1 x691
<= -0
c1154:
+10000 x139
-14 x415
+1 x691
-1 x1040
<= +10000
c1155:
-10000 x139
-14 x415
+1 x691
-1 x1040
>= -10000
c1156:
-20 x140
+1 x1091
<= -0
c1157:
+1 x140
-1 x1091
<= -0
c1158:
-10000 x140
+1 x692
<= -0
c1159:
-10000 x140
-1 x692
<= -0
c1160:
+10000 x140
-47 x416
+1 x692
-1 x1034
<= +10000
c1161:
-10000 x140
-47 x416
+1 x692
-1 x1034
>= -10000
c1162:
-20 x141
+1 x1092
<= -0
c1163:
+1 x141
-1 x1092
<= -0
c1164:
-10000 x141
+1 x693
<= -0
c1165:
-10000 x141
-1 x693
<= -0
c1166:
+10000 x141
-25 x417
+1 x693
-1 x1052
<= +10000
c1167:
-10000 x141
-25 x417
+1 x693
-1 x1052
>= -10000
c1168:
-20 x142
+1 x1093
<= -0
c1169:
+1 x142
-1 x1093
<= -0
c1170:
-10000 x142
+1 x694
<= -0
c1171:
-10000 x142
-1 x694
<= -0
c1172:
+10000 x142
-37 x418
+1 x694
-1 x1052
<= +10000
c1173:
-10000 x142
-37 x418
+1 x694
-1 x1052
>= -10000
c1174:
-20 x143
+1 x1094
<= -0
c1175:
+1 x143
-1 x1094
<= -0
c1176:
-10000 x143
+1 x695
<= -0
c1177:
-10000 x143
-1 x695
<= -0
c1178:
+10000 x143
-19 x419
+1 x695
-1 x1032
<= +10000
c1179:
-10000 x143
-19 x419
+1 x695
-1 x1032
>= -10000
c1180:
-20 x144
+1 x1095
<= -0
c1181:
+1 x144
-1 x1095
<= -0
c1182:
-10000 x144
+1 x696
<= -0
c1183:
-10000 x144
-1 x696
<= -0
c1184:
+10000 x144
-24 x420
+1 x696
-1 x1065
<= +10000
c1185:
-10000 x144
-24 x420
+1 x696
-1 x1065
>= -10000
c1186:
-20 x145
+1 x1096
<= -0
c1187:
+1 x145
-1 x1096
<= -0
c1188:
-10000 x145
+1 x697
<= -0
c1189:
-10000 x145
-1 x697
<= -0
c1190:
+10000 x145
-28 x421
+1 x697
-1 x1067
<= +10000
c1191:
-10000 x145
-28 x421
+1 x697
-1 x1067
>= -10000
c1192:
-20 x146
+1 x1097
<= -0
c1193:
+1 x146
-1 x1097
<= -0
c1194:
-10000 x146
+1 x698
<= -0
c1195:
-10000 x146
-1 x698
<= -0
c1196:
+10000 x146
-24 x422
+1 x698
-1 x1043
<= +10000
c1197:
-10000 x146
-24 x422
+1 x698
-1 x1043
>= -10000
c1198:
-20 x147
+1 x1098
<= -0
c1199:
+1 x147
-1 x1098
<= -0
c1200:
-10000 x147
+1 x699
<= -0
c1201:
-10000 x147
-1 x699
<= -0
c1202:
+10000 x147
-8 x423
+1 x699
-1 x1037
<= +10000
c1203:
-10000 x147
-8 x423
+1 x699
-1 x1037
>= -10000
c1204:
-20 x148
+1 x1099
<= -0
c1205:
+1 x148
-1 x1099
<= -0
c1206:
-10000 x148
+1 x700
<= -0
c1207:
-10000 x148
-1 x700
<= -0
c1208:
+10000 x148
-35 x424
+1 x700
-1 x1045
<= +10000
c1209:
-10000 x148
-35 x424
+1 x700
-1 x1045
>= -10000
c1210:
-20 x149
+1 x1100
<= -0
c1211:
+1 x149
-1 x1100
<= -0
c1212:
-10000 x149
+1 x701
<= -0
c1213:
-10000 x149
-1 x701
<= -0
c1214:
+10000 x149
-51 x425
+1 x701
-1 x1026
<= +10000
c1215:
-10000 x149
-51 x425
+1 x701
-1 x1026
>= -10000
c1216:
-20 x150
+1 x1101
<= -0
c1217:
+1 x150
-1 x1101
<= -0
c1218:
-10000 x150
+1 x702
<= -0
c1219:
-10000 x150
-1 x702
<= -0
c1220:
+10000 x150
-11 x426
+1 x702
-1 x1056
<= +10000
c1221:
-10000 x150
-11 x426
+1 x702
-1 x1056
>= -10000
c1222:
-20 x151
+1 x1102
<= -0
c1223:
+1 x151
-1 x1102
<= -0
c1224:
-10000 x151
+1 x703
<= -0
c1225:
-10000 x151
-1 x703
<= -0
c1226:
+10000 x151
-40 x427
+1 x703
-1 x1056
<= +10000
c1227:
-10000 x151
-40 x427
+1 x703
-1 x1056
>= -10000
c1228:
-20 x152
+1 x1103
<= -0
c1229:
+1 x152
-1 x1103
<= -0
c1230:
-10000 x152
+1 x704
<= -0
c1231:
-10000 x152
-1 x704
<= -0
c1232:
+10000 x152
-31 x428
+1 x704
-1 x1036
<= +10000
c1233:
-10000 x152
-31 x428
+1 x704
-1 x1036
>= -10000
c1234:
-20 x153
+1 x1104
<= -0
c1235:
+1 x153
-1 x1104
<= -0
c1236:
-10000 x153
+1 x705
<= -0
c1237:
-10000 x153
-1 x705
<= -0
c1238:
+10000 x153
-24 x429
+1 x705
-1 x1036
<= +10000
c1239:
-10000 x153
-24 x429
+1 x705
-1 x1036
>= -10000
c1240:
-20 x154
+1 x1105
<= -0
c1241:
+1 x154
-1 x1105
<= -0
c1242:
-10000 x154
+1 x706
<= -0
c1243:
-10000 x154
-1 x706
<= -0
c1244:
+10000 x154
-13 x430
+1 x706
-1 x1057
<= +10000
c1245:
-10000 x154
-13 x430
+1 x706
-1 x1057
>= -10000
c1246:
-20 x155
+1 x1106
<= -0
c1247:
+1 x155
-1 x1106
<= -0
c1248:
-10000 x155
+1 x707
<= -0
c1249:
-10000 x155
-1 x707
<= -0
c1250:
+10000 x155
-30 x431
+1 x707
-1 x1057
<= +10000
c1251:
-10000 x155
-30 x431
+1 x707
-1 x1057
>= -10000
c1252:
-20 x156
+1 x1107
<= -0
c1253:
+1 x156
-1 x1107
<= -0
c1254:
-10000 x156
+1 x708
<= -0
c1255:
-10000 x156
-1 x708
<= -0
c1256:
+10000 x156
-10 x432
+1 x708
-1 x1020
<= +10000
c1257:
-10000 x156
-10 x432
+1 x708
-1 x1020
>= -10000
c1258:
-20 x157
+1 x1108
<= -0
c1259:
+1 x157
-1 x1108
<= -0
c1260:
-10000 x157
+1 x709
<= -0
c1261:
-10000 x157
-1 x709
<= -0
c1262:
+10000 x157
-26 x433
+1 x709
-1 x1051
<= +10000
c1263:
-10000 x157
-26 x433
+1 x709
-1 x1051
>= -10000
c1264:
-20 x158
+1 x1109
<= -0
c1265:
+1 x158
-1 x1109
<= -0
c1266:
-10000 x158
+1 x710
<= -0
c1267:
-10000 x158
-1 x710
<= -0
c1268:
+10000 x158
-30 x434
+1 x710
-1 x1051
<= +10000
c1269:
-10000 x158
-30 x434
+1 x710
-1 x1051
>= -10000
c1270:
-20 x159
+1 x1110
<= -0
c1271:
+1 x159
-1 x1110
<= -0
c1272:
-10000 x159
+1 x711
<= -0
c1273:
-10000 x159
-1 x711
<= -0
c1274:
+10000 x159
-30 x435
+1 x711
-1 x1040
<= +10000
c1275:
-10000 x159
-30 x435
+1 x711
-1 x1040
>= -10000
c1276:
-20 x160
+1 x1111
<= -0
c1277:
+1 x160
-1 x1111
<= -0
c1278:
-10000 x160
+1 x712
<= -0
c1279:
-10000 x160
-1 x712
<= -0
c1280:
+10000 x160
-13 x436
+1 x712
-1 x1059
<= +10000
c1281:
-10000 x160
-13 x436
+1 x712
-1 x1059
>= -10000
c1282:
-20 x161
+1 x1112
<= -0
c1283:
+1 x161
-1 x1112
<= -0
c1284:
-10000 x161
+1 x713
<= -0
c1285:
-10000 x161
-1 x713
<= -0
c1286:
+10000 x161
-31 x437
+1 x713
-1 x1059
<= +10000
c1287:
-10000 x161
-31 x437
+1 x713
-1 x1059
>= -10000
c1288:
-20 x162
+1 x1113
<= -0
c1289:
+1 x162
-1 x1113
<= -0
c1290:
-10000 x162
+1 x714
<= -0
c1291:
-10000 x162
-1 x714
<= -0
c1292:
+10000 x162
-20 x438
+1 x714
-1 x1066
<= +10000
c1293:
-10000 x162
-20 x438
+1 x714
-1 x1066
>= -10000
c1294:
-20 x163
+1 x1114
<= -0
c1295:
+1 x163
-1 x1114
<= -0
c1296:
-10000 x163
+1 x715
<= -0
c1297:
-10000 x163
-1 x715
<= -0
c1298:
+10000 x163
-21 x439
+1 x715
-1 x1066
<= +10000
c1299:
-10000 x163
-21 x439
+1 x715
-1 x1066
>= -10000
c1300:
-20 x164
+1 x1115
<= -0
c1301:
+1 x164
-1 x1115
<= -0
c1302:
-10000 x164
+1 x716
<= -0
c1303:
-10000 x164
-1 x716
<= -0
c1304:
+10000 x164
-30 x440
+1 x716
-1 x1034
<= +10000
c1305:
-10000 x164
-30 x440
+1 x716
-1 x1034
>= -10000
c1306:
-20 x165
+1 x1116
<= -0
c1307:
+1 x165
-1 x1116
<= -0
c1308:
-10000 x165
+1 x717
<= -0
c1309:
-10000 x165
-1 x717
<= -0
c1310:
+10000 x165
-22 x441
+1 x717
-1 x1042
<= +10000
c1311:
-10000 x165
-22 x441
+1 x717
-1 x1042
>= -10000
c1312:
-20 x166
+1 x1117
<= -0
c1313:
+1 x166
-1 x1117
<= -0
c1314:
-10000 x166
+1 x718
<= -0
c1315:
-10000 x166
-1 x718
<= -0
c1316:
+10000 x166
-13 x442
+1 x718
-1 x1034
<= +10000
c1317:
-10000 x166
-13 x442
+1 x718
-1 x1034
>= -10000
c1318:
-20 x167
+1 x1118
<= -0
c1319:
+1 x167
-1 x1118
<= -0
c1320:
-10000 x167
+1 x719
<= -0
c1321:
-10000 x167
-1 x719
<= -0
c1322:
+10000 x167
-6 x443
+1 x719
-1 x1061
<= +10000
c1323:
-10000 x167
-6 x443
+1 x719
-1 x1061
>= -10000
c1324:
-20 x168
+1 x1119
<= -0
c1325:
+1 x168
-1 x1119
<= -0
c1326:
-10000 x168
+1 x720
<= -0
c1327:
-10000 x168
-1 x720
<= -0
c1328:
+10000 x168
-11 x444
+1 x720
-1 x1034
<= +10000
c1329:
-10000 x168
-11 x444
+1 x720
-1 x1034
>= -10000
c1330:
-20 x169
+1 x1120
<= -0
c1331:
+1 x169
-1 x1120
<= -0
c1332:
-10000 x169
+1 x721
<= -0
c1333:
-10000 x169
-1 x721
<= -0
c1334:
+10000 x169
-16 x445
+1 x721
-1 x1052
<= +10000
c1335:
-10000 x169
-16 x445
+1 x721
-1 x1052
>= -10000
c1336:
-20 x170
+1 x1121
<= -0
c1337:
+1 x170
-1 x1121
<= -0
c1338:
-10000 x170
+1 x722
<= -0
c1339:
-10000 x170
-1 x722
<= -0
c1340:
+10000 x170
-20 x446
+1 x722
-1 x1061
<= +10000
c1341:
-10000 x170
-20 x446
+1 x722
-1 x1061
>= -10000
c1342:
-20 x171
+1 x1122
<= -0
c1343:
+1 x171
-1 x1122
<= -0
c1344:
-10000 x171
+1 x723
<= -0
c1345:
-10000 x171
-1 x723
<= -0
c1346:
+10000 x171
-19 x447
+1 x723
-1 x1052
<= +10000
c1347:
-10000 x171
-19 x447
+1 x723
-1 x1052
>= -10000
c1348:
-20 x172
+1 x1123
<= -0
c1349:
+1 x172
-1 x1123
<= -0
c1350:
-10000 x172
+1 x724
<= -0
c1351:
-10000 x172
-1 x724
<= -0
c1352:
+10000 x172
-25 x448
+1 x724
-1 x1033
<= +10000
c1353:
-10000 x172
-25 x448
+1 x724
-1 x1033
>= -10000
c1354:
-20 x173
+1 x1124
<= -0
c1355:
+1 x173
-1 x1124
<= -0
c1356:
-10000 x173
+1 x725
<= -0
c1357:
-10000 x173
-1 x725
<= -0
c1358:
+10000 x173
-21 x449
+1 x725
-1 x1052
<= +10000
c1359:
-10000 x173
-21 x449
+1 x725
-1 x1052
>= -10000
c1360:
-20 x174
+1 x1125
<= -0
c1361:
+1 x174
-1 x1125
<= -0
c1362:
-10000 x174
+1 x726
<= -0
c1363:
-10000 x174
-1 x726
<= -0
c1364:
+10000 x174
-17 x450
+1 x726
-1 x1032
<= +10000
c1365:
-10000 x174
-17 x450
+1 x726
-1 x1032
>= -10000
c1366:
-20 x175
+1 x1126
<= -0
c1367:
+1 x175
-1 x1126
<= -0
c1368:
-10000 x175
+1 x727
<= -0
c1369:
-10000 x175
-1 x727
<= -0
c1370:
+10000 x175
-10 x451
+1 x727
-1 x1033
<= +10000
c1371:
-10000 x175
-10 x451
+1 x727
-1 x1033
>= -10000
c1372:
-20 x176
+1 x1127
<= -0
c1373:
+1 x176
-1 x1127
<= -0
c1374:
-10000 x176
+1 x728
<= -0
c1375:
-10000 x176
-1 x728
<= -0
c1376:
+10000 x176
-11 x452
+1 x728
-1 x1032
<= +10000
c1377:
-10000 x176
-11 x452
+1 x728
-1 x1032
>= -10000
c1378:
-20 x177
+1 x1128
<= -0
c1379:
+1 x177
-1 x1128
<= -0
c1380:
-10000 x177
+1 x729
<= -0
c1381:
-10000 x177
-1 x729
<= -0
c1382:
+10000 x177
-26 x453
+1 x729
-1 x1065
<= +10000
c1383:
-10000 x177
-26 x453
+1 x729
-1 x1065
>= -10000
c1384:
-20 x178
+1 x1129
<= -0
c1385:
+1 x178
-1 x1129
<= -0
c1386:
-10000 x178
+1 x730
<= -0
c1387:
-10000 x178
-1 x730
<= -0
c1388:
+10000 x178
-24 x454
+1 x730
-1 x1044
<= +10000
c1389:
-10000 x178
-24 x454
+1 x730
-1 x1044
>= -10000
c1390:
-20 x179
+1 x1130
<= -0
c1391:
+1 x179
-1 x1130
<= -0
c1392:
-10000 x179
+1 x731
<= -0
c1393:
-10000 x179
-1 x731
<= -0
c1394:
+10000 x179
-34 x455
+1 x731
-1 x1065
<= +10000
c1395:
-10000 x179
-34 x455
+1 x731
-1 x1065
>= -10000
c1396:
-20 x180
+1 x1131
<= -0
c1397:
+1 x180
-1 x1131
<= -0
c1398:
-10000 x180
+1 x732
<= -0
c1399:
-10000 x180
-1 x732
<= -0
c1400:
+10000 x180
-13 x456
+1 x732
-1 x1027
<= +10000
c1401:
-10000 x180
-13 x456
+1 x732
-1 x1027
>= -10000
c1402:
-20 x181
+1 x1132
<= -0
c1403:
+1 x181
-1 x1132
<= -0
c1404:
-10000 x181
+1 x733
<= -0
c1405:
-10000 x181
-1 x733
<= -0
c1406:
+10000 x181
-30 x457
+1 x733
-1 x1065
<= +10000
c1407:
-10000 x181
-30 x457
+1 x733
-1 x1065
>= -10000
c1408:
-20 x182
+1 x1133
<= -0
c1409:
+1 x182
-1 x1133
<= -0
c1410:
-10000 x182
+1 x734
<= -0
c1411:
-10000 x182
-1 x734
<= -0
c1412:
+10000 x182
-12 x458
+1 x734
-1 x1067
<= +10000
c1413:
-10000 x182
-12 x458
+1 x734
-1 x1067
>= -10000
c1414:
-20 x183
+1 x1134
<= -0
c1415:
+1 x183
-1 x1134
<= -0
c1416:
-10000 x183
+1 x735
<= -0
c1417:
-10000 x183
-1 x735
<= -0
c1418:
+10000 x183
-7 x459
+1 x735
-1 x1047
<= +10000
c1419:
-10000 x183
-7 x459
+1 x735
-1 x1047
>= -10000
c1420:
-20 x184
+1 x1135
<= -0
c1421:
+1 x184
-1 x1135
<= -0
c1422:
-10000 x184
+1 x736
<= -0
c1423:
-10000 x184
-1 x736
<= -0
c1424:
+10000 x184
-11 x460
+1 x736
-1 x1067
<= +10000
c1425:
-10000 x184
-11 x460
+1 x736
-1 x1067
>= -10000
c1426:
-20 x185
+1 x1136
<= -0
c1427:
+1 x185
-1 x1136
<= -0
c1428:
-10000 x185
+1 x737
<= -0
c1429:
-10000 x185
-1 x737
<= -0
c1430:
+10000 x185
-19 x461
+1 x737
-1 x1050
<= +10000
c1431:
-10000 x185
-19 x461
+1 x737
-1 x1050
>= -10000
c1432:
-20 x186
+1 x1137
<= -0
c1433:
+1 x186
-1 x1137
<= -0
c1434:
-10000 x186
+1 x738
<= -0
c1435:
-10000 x186
-1 x738
<= -0
c1436:
+10000 x186
-10 x462
+1 x738
-1 x1050
<= +10000
c1437:
-10000 x186
-10 x462
+1 x738
-1 x1050
>= -10000
c1438:
-20 x187
+1 x1138
<= -0
c1439:
+1 x187
-1 x1138
<= -0
c1440:
-10000 x187
+1 x739
<= -0
c1441:
-10000 x187
-1 x739
<= -0
c1442:
+10000 x187
-11 x463
+1 x739
-1 x1021
<= +10000
c1443:
-10000 x187
-11 x463
+1 x739
-1 x1021
>= -10000
c1444:
-20 x188
+1 x1139
<= -0
c1445:
+1 x188
-1 x1139
<= -0
c1446:
-10000 x188
+1 x740
<= -0
c1447:
-10000 x188
-1 x740
<= -0
c1448:
+10000 x188
-7 x464
+1 x740
-1 x1021
<= +10000
c1449:
-10000 x188
-7 x464
+1 x740
-1 x1021
>= -10000
c1450:
-20 x189
+1 x1140
<= -0
c1451:
+1 x189
-1 x1140
<= -0
c1452:
-10000 x189
+1 x741
<= -0
c1453:
-10000 x189
-1 x741
<= -0
c1454:
+10000 x189
-6 x465
+1 x741
-1 x1055
<= +10000
c1455:
-10000 x189
-6 x465
+1 x741
-1 x1055
>= -10000
c1456:
-20 x190
+1 x1141
<= -0
c1457:
+1 x190
-1 x1141
<= -0
c1458:
-10000 x190
+1 x742
<= -0
c1459:
-10000 x190
-1 x742
<= -0
c1460:
+10000 x190
-9 x466
+1 x742
-1 x1055
<= +10000
c1461:
-10000 x190
-9 x466
+1 x742
-1 x1055
>= -10000
c1462:
-20 x191
+1 x1142
<= -0
c1463:
+1 x191
-1 x1142
<= -0
c1464:
-10000 x191
+1 x743
<= -0
c1465:
-10000 x191
-1 x743
<= -0
c1466:
+10000 x191
-11 x467
+1 x743
-1 x1043
<= +10000
c1467:
-10000 x191
-11 x467
+1 x743
-1 x1043
>= -10000
c1468:
-20 x192
+1 x1143
<= -0
c1469:
+1 x192
-1 x1143
<= -0
c1470:
-10000 x192
+1 x744
<= -0
c1471:
-10000 x192
-1 x744
<= -0
c1472:
+10000 x192
-14 x468
+1 x744
-1 x1060
<= +10000
c1473:
-10000 x192
-14 x468
+1 x744
-1 x1060
>= -10000
c1474:
-20 x193
+1 x1144
<= -0
c1475:
+1 x193
-1 x1144
<= -0
c1476:
-10000 x193
+1 x745
<= -0
c1477:
-10000 x193
-1 x745
<= -0
c1478:
+10000 x193
-20 x469
+1 x745
-1 x1043
<= +10000
c1479:
-10000 x193
-20 x469
+1 x745
-1 x1043
>= -10000
c1480:
-20 x194
+1 x1145
<= -0
c1481:
+1 x194
-1 x1145
<= -0
c1482:
-10000 x194
+1 x746
<= -0
c1483:
-10000 x194
-1 x746
<= -0
c1484:
+10000 x194
-4 x470
+1 x746
-1 x1035
<= +10000
c1485:
-10000 x194
-4 x470
+1 x746
-1 x1035
>= -10000
c1486:
-20 x195
+1 x1146
<= -0
c1487:
+1 x195
-1 x1146
<= -0
c1488:
-10000 x195
+1 x747
<= -0
c1489:
-10000 x195
-1 x747
<= -0
c1490:
+10000 x195
-7 x471
+1 x747
-1 x1028
<= +10000
c1491:
-10000 x195
-7 x471
+1 x747
-1 x1028
>= -10000
c1492:
-20 x196
+1 x1147
<= -0
c1493:
+1 x196
-1 x1147
<= -0
c1494:
-10000 x196
+1 x748
<= -0
c1495:
-10000 x196
-1 x748
<= -0
c1496:
+10000 x196
-10 x472
+1 x748
-1 x1028
<= +10000
c1497:
-10000 x196
-10 x472
+1 x748
-1 x1028
>= -10000
c1498:
-20 x197
+1 x1148
<= -0
c1499:
+1 x197
-1 x1148
<= -0
c1500:
-10000 x197
+1 x749
<= -0
c1501:
-10000 x197
-1 x749
<= -0
c1502:
+10000 x197
-14 x473
+1 x749
-1 x1028
<= +10000
c1503:
-10000 x197
-14 x473
+1 x749
-1 x1028
>= -10000
c1504:
-20 x198
+1 x1149
<= -0
c1505:
+1 x198
-1 x1149
<= -0
c1506:
-10000 x198
+1 x750
<= -0
c1507:
-10000 x198
-1 x750
<= -0
c1508:
+10000 x198
-7 x474
+1 x750
-1 x1037
<= +10000
c1509:
-10000 x198
-7 x474
+1 x750
-1 x1037
>= -10000
c1510:
-20 x199
+1 x1150
<= -0
c1511:
+1 x199
-1 x1150
<= -0
c1512:
-10000 x199
+1 x751
<= -0
c1513:
-10000 x199
-1 x751
<= -0
c1514:
+10000 x199
-3 x475
+1 x751
-1 x1031
<= +10000
c1515:
-10000 x199
-3 x475
+1 x751
-1 x1031
>= -10000
c1516:
-20 x200
+1 x1151
<= -0
c1517:
+1 x200
-1 x1151
<= -0
c1518:
-10000 x200
+1 x752
<= -0
c1519:
-10000 x200
-1 x752
<= -0
c1520:
+10000 x200
-12 x476
+1 x752
-1 x1025
<= +10000
c1521:
-10000 x200
-12 x476
+1 x752
-1 x1025
>= -10000
c1522:
-20 x201
+1 x1152
<= -0
c1523:
+1 x201
-1 x1152
<= -0
c1524:
-10000 x201
+1 x753
<= -0
c1525:
-10000 x201
-1 x753
<= -0
c1526:
+10000 x201
-14 x477
+1 x753
-1 x1025
<= +10000
c1527:
-10000 x201
-14 x477
+1 x753
-1 x1025
>= -10000
c1528:
-20 x202
+1 x1153
<= -0
c1529:
+1 x202
-1 x1153
<= -0
c1530:
-10000 x202
+1 x754
<= -0
c1531:
-10000 x202
-1 x754
<= -0
c1532:
+10000 x202
-22 x478
+1 x754
-1 x1025
<= +10000
c1533:
-10000 x202
-22 x478
+1 x754
-1 x1025
>= -10000
c1534:
-20 x203
+1 x1154
<= -0
c1535:
+1 x203
-1 x1154
<= -0
c1536:
-10000 x203
+1 x755
<= -0
c1537:
-10000 x203
-1 x755
<= -0
c1538:
+10000 x203
-20 x479
+1 x755
-1 x1049
<= +10000
c1539:
-10000 x203
-20 x479
+1 x755
-1 x1049
>= -10000
c1540:
-20 x204
+1 x1155
<= -0
c1541:
+1 x204
-1 x1155
<= -0
c1542:
-10000 x204
+1 x756
<= -0
c1543:
-10000 x204
-1 x756
<= -0
c1544:
+10000 x204
-20 x480
+1 x756
-1 x1049
<= +10000
c1545:
-10000 x204
-20 x480
+1 x756
-1 x1049
>= -10000
c1546:
-20 x205
+1 x1156
<= -0
c1547:
+1 x205
-1 x1156
<= -0
c1548:
-10000 x205
+1 x757
<= -0
c1549:
-10000 x205
-1 x757
<= -0
c1550:
+10000 x205
-6 x481
+1 x757
-1 x1049
<= +10000
c1551:
-10000 x205
-6 x481
+1 x757
-1 x1049
>= -10000
c1552:
-20 x206
+1 x1157
<= -0
c1553:
+1 x206
-1 x1157
<= -0
c1554:
-10000 x206
+1 x758
<= -0
c1555:
-10000 x206
-1 x758
<= -0
c1556:
+10000 x206
-16 x482
+1 x758
-1 x1039
<= +10000
c1557:
-10000 x206
-16 x482
+1 x758
-1 x1039
>= -10000
c1558:
-20 x207
+1 x1158
<= -0
c1559:
+1 x207
-1 x1158
<= -0
c1560:
-10000 x207
+1 x759
<= -0
c1561:
-10000 x207
-1 x759
<= -0
c1562:
+10000 x207
-18 x483
+1 x759
-1 x1039
<= +10000
c1563:
-10000 x207
-18 x483
+1 x759
-1 x1039
>= -10000
c1564:
-20 x208
+1 x1159
<= -0
c1565:
+1 x208
-1 x1159
<= -0
c1566:
-10000 x208
+1 x760
<= -0
c1567:
-10000 x208
-1 x760
<= -0
c1568:
+10000 x208
-14 x484
+1 x760
-1 x1041
<= +10000
c1569:
-10000 x208
-14 x484
+1 x760
-1 x1041
>= -10000
c1570:
-20 x209
+1 x1160
<= -0
c1571:
+1 x209
-1 x1160
<= -0
c1572:
-10000 x209
+1 x761
<= -0
c1573:
-10000 x209
-1 x761
<= -0
c1574:
+10000 x209
-17 x485
+1 x761
-1 x1041
<= +10000
c1575:
-10000 x209
-17 x485
+1 x761
-1 x1041
>= -10000
c1576:
-20 x210
+1 x1161
<= -0
c1577:
+1 x210
-1 x1161
<= -0
c1578:
-10000 x210
+1 x762
<= -0
c1579:
-10000 x210
-1 x762
<= -0
c1580:
+10000 x210
-23 x486
+1 x762
-1 x1036
<= +10000
c1581:
-10000 x210
-23 x486
+1 x762
-1 x1036
>= -10000
c1582:
-20 x211
+1 x1162
<= -0
c1583:
+1 x211
-1 x1162
<= -0
c1584:
-10000 x211
+1 x763
<= -0
c1585:
-10000 x211
-1 x763
<= -0
c1586:
+10000 x211
-23 x487
+1 x763
-1 x1051
<= +10000
c1587:
-10000 x211
-23 x487
+1 x763
-1 x1051
>= -10000
c1588:
-20 x212
+1 x1163
<= -0
c1589:
+1 x212
-1 x1163
<= -0
c1590:
-10000 x212
+1 x764
<= -0
c1591:
-10000 x212
-1 x764
<= -0
c1592:
+10000 x212
-26 x488
+1 x764
-1 x1051
<= +10000
c1593:
-10000 x212
-26 x488
+1 x764
-1 x1051
>= -10000
c1594:
-20 x213
+1 x1164
<= -0
c1595:
+1 x213
-1 x1164
<= -0
c1596:
-10000 x213
+1 x765
<= -0
c1597:
-10000 x213
-1 x765
<= -0
c1598:
+10000 x213
-22 x489
+1 x765
-1 x1030
<= +10000
c1599:
-10000 x213
-22 x489
+1 x765
-1 x1030
>= -10000
c1600:
-20 x214
+1 x1165
<= -0
c1601:
+1 x214
-1 x1165
<= -0
c1602:
-10000 x214
+1 x766
<= -0
c1603:
-10000 x214
-1 x766
<= -0
c1604:
+10000 x214
-4 x490
+1 x766
-1 x1030
<= +10000
c1605:
-10000 x214
-4 x490
+1 x766
-1 x1030
>= -10000
c1606:
-20 x215
+1 x1166
<= -0
c1607:
+1 x215
-1 x1166
<= -0
c1608:
-10000 x215
+1 x767
<= -0
c1609:
-10000 x215
-1 x767
<= -0
c1610:
+10000 x215
-13 x491
+1 x767
-1 x1059
<= +10000
c1611:
-10000 x215
-13 x491
+1 x767
-1 x1059
>= -10000
c1612:
-20 x216
+1 x1167
<= -0
c1613:
+1 x216
-1 x1167
<= -0
c1614:
-10000 x216
+1 x768
<= -0
c1615:
-10000 x216
-1 x768
<= -0
c1616:
+10000 x216
-13 x492
+1 x768
-1 x1024
<= +10000
c1617:
-10000 x216
-13 x492
+1 x768
-1 x1024
>= -10000
c1618:
-20 x217
+1 x1168
<= -0
c1619:
+1 x217
-1 x1168
<= -0
c1620:
-10000 x217
+1 x769
<= -0
c1621:
-10000 x217
-1 x769
<= -0
c1622:
+10000 x217
-1 x493
+1 x769
-1 x1059
<= +10000
c1623:
-10000 x217
-1 x493
+1 x769
-1 x1059
>= -10000
c1624:
-20 x218
+1 x1169
<= -0
c1625:
+1 x218
-1 x1169
<= -0
c1626:
-10000 x218
+1 x770
<= -0
c1627:
-10000 x218
-1 x770
<= -0
c1628:
+10000 x218
-24 x494
+1 x770
-1 x1064
<= +10000
c1629:
-10000 x218
-24 x494
+1 x770
-1 x1064
>= -10000
c1630:
-20 x219
+1 x1170
<= -0
c1631:
+1 x219
-1 x1170
<= -0
c1632:
-10000 x219
+1 x771
<= -0
c1633:
-10000 x219
-1 x771
<= -0
c1634:
+10000 x219
-24 x495
+1 x771
-1 x1064
<= +10000
c1635:
-10000 x219
-24 x495
+1 x771
-1 x1064
>= -10000
c1636:
-20 x220
+1 x1171
<= -0
c1637:
+1 x220
-1 x1171
<= -0
c1638:
-10000 x220
+1 x772
<= -0
c1639:
-10000 x220
-1 x772
<= -0
c1640:
+10000 x220
-26 x496
+1 x772
-1 x1064
<= +10000
c1641:
-10000 x220
-26 x496
+1 x772
-1 x1064
>= -10000
c1642:
-20 x221
+1 x1172
<= -0
c1643:
+1 x221
-1 x1172
<= -0
c1644:
-10000 x221
+1 x773
<= -0
c1645:
-10000 x221
-1 x773
<= -0
c1646:
+10000 x221
-18 x497
+1 x773
-1 x1042
<= +10000
c1647:
-10000 x221
-18 x497
+1 x773
-1 x1042
>= -10000
c1648:
-20 x222
+1 x1173
<= -0
c1649:
+1 x222
-1 x1173
<= -0
c1650:
-10000 x222
+1 x774
<= -0
c1651:
-10000 x222
-1 x774
<= -0
c1652:
+10000 x222
-17 x498
+1 x774
-1 x1024
<= +10000
c1653:
-10000 x222
-17 x498
+1 x774
-1 x1024
>= -10000
c1654:
-20 x223
+1 x1174
<= -0
c1655:
+1 x223
-1 x1174
<= -0
c1656:
-10000 x223
+1 x775
<= -0
c1657:
-10000 x223
-1 x775
<= -0
c1658:
+10000 x223
-30 x499
+1 x775
-1 x1064
<= +10000
c1659:
-10000 x223
-30 x499
+1 x775
-1 x1064
>= -10000
c1660:
-20 x224
+1 x1175
<= -0
c1661:
+1 x224
-1 x1175
<= -0
c1662:
-10000 x224
+1 x776
<= -0
c1663:
-10000 x224
-1 x776
<= -0
c1664:
+10000 x224
-23 x500
+1 x776
-1 x1058
<= +10000
c1665:
-10000 x224
-23 x500
+1 x776
-1 x1058
>= -10000
c1666:
-20 x225
+1 x1176
<= -0
c1667:
+1 x225
-1 x1176
<= -0
c1668:
-10000 x225
+1 x777
<= -0
c1669:
-10000 x225
-1 x777
<= -0
c1670:
+10000 x225
-31 x501
+1 x777
-1 x1064
<= +10000
c1671:
-10000 x225
-31 x501
+1 x777
-1 x1064
>= -10000
c1672:
-20 x226
+1 x1177
<= -0
c1673:
+1 x226
-1 x1177
<= -0
c1674:
-10000 x226
+1 x778
<= -0
c1675:
-10000 x226
-1 x778
<= -0
c1676:
+10000 x226
-9 x502
+1 x778
-1 x1048
<= +10000
c1677:
-10000 x226
-9 x502
+1 x778
-1 x1048
>= -10000
c1678:
-20 x227
+1 x1178
<= -0
c1679:
+1 x227
-1 x1178
<= -0
c1680:
-10000 x227
+1 x779
<= -0
c1681:
-10000 x227
-1 x779
<= -0
c1682:
+10000 x227
-27 x503
+1 x779
-1 x1064
<= +10000
c1683:
-10000 x227
-27 x503
+1 x779
-1 x1064
>= -10000
c1684:
-20 x228
+1 x1179
<= -0
c1685:
+1 x228
-1 x1179
<= -0
c1686:
-10000 x228
+1 x780
<= -0
c1687:
-10000 x228
-1 x780
<= -0
c1688:
+10000 x228
-18 x504
+1 x780
-1 x1033
<= +10000
c1689:
-10000 x228
-18 x504
+1 x780
-1 x1033
>= -10000
c1690:
-20 x229
+1 x1180
<= -0
c1691:
+1 x229
-1 x1180
<= -0
c1692:
-10000 x229
+1 x781
<= -0
c1693:
-10000 x229
-1 x781
<= -0
c1694:
+10000 x229
-13 x505
+1 x781
-1 x1044
<= +10000
c1695:
-10000 x229
-13 x505
+1 x781
-1 x1044
>= -10000
c1696:
-20 x230
+1 x1181
<= -0
c1697:
+1 x230
-1 x1181
<= -0
c1698:
-10000 x230
+1 x782
<= -0
c1699:
-10000 x230
-1 x782
<= -0
c1700:
+10000 x230
-14 x506
+1 x782
-1 x1048
<= +10000
c1701:
-10000 x230
-14 x506
+1 x782
-1 x1048
>= -10000
c1702:
-20 x231
+1 x1182
<= -0
c1703:
+1 x231
-1 x1182
<= -0
c1704:
-10000 x231
+1 x783
<= -0
c1705:
-10000 x231
-1 x783
<= -0
c1706:
+10000 x231
-8 x507
+1 x783
-1 x1058
<= +10000
c1707:
-10000 x231
-8 x507
+1 x783
-1 x1058
>= -10000
c1708:
-20 x232
+1 x1183
<= -0
c1709:
+1 x232
-1 x1183
<= -0
c1710:
-10000 x232
+1 x784
<= -0
c1711:
-10000 x232
-1 x784
<= -0
c1712:
+10000 x232
-16 x508
+1 x784
-1 x1058
<= +10000
c1713:
-10000 x232
-16 x508
+1 x784
-1 x1058
>= -10000
c1714:
-20 x233
+1 x1184
<= -0
c1715:
+1 x233
-1 x1184
<= -0
c1716:
-10000 x233
+1 x785
<= -0
c1717:
-10000 x233
-1 x785
<= -0
c1718:
+10000 x233
-15 x509
+1 x785
-1 x1027
<= +10000
c1719:
-10000 x233
-15 x509
+1 x785
-1 x1027
>= -10000
c1720:
-20 x234
+1 x1185
<= -0
c1721:
+1 x234
-1 x1185
<= -0
c1722:
-10000 x234
+1 x786
<= -0
c1723:
-10000 x234
-1 x786
<= -0
c1724:
+10000 x234
-13 x510
+1 x786
-1 x1022
<= +10000
c1725:
-10000 x234
-13 x510
+1 x786
-1 x1022
>= -10000
c1726:
-20 x235
+1 x1186
<= -0
c1727:
+1 x235
-1 x1186
<= -0
c1728:
-10000 x235
+1 x787
<= -0
c1729:
-10000 x235
-1 x787
<= -0
c1730:
+10000 x235
-5 x511
+1 x787
-1 x1027
<= +10000
c1731:
-10000 x235
-5 x511
+1 x787
-1 x1027
>= -10000
c1732:
-20 x236
+1 x1187
<= -0
c1733:
+1 x236
-1 x1187
<= -0
c1734:
-10000 x236
+1 x788
<= -0
c1735:
-10000 x236
-1 x788
<= -0
c1736:
+10000 x236
-9 x512
+1 x788
-1 x1047
<= +10000
c1737:
-10000 x236
-9 x512
+1 x788
-1 x1047
>= -10000
c1738:
-20 x237
+1 x1188
<= -0
c1739:
+1 x237
-1 x1188
<= -0
c1740:
-10000 x237
+1 x789
<= -0
c1741:
-10000 x237
-1 x789
<= -0
c1742:
+10000 x237
-14 x513
+1 x789
-1 x1022
<= +10000
c1743:
-10000 x237
-14 x513
+1 x789
-1 x1022
>= -10000
c1744:
-20 x238
+1 x1189
<= -0
c1745:
+1 x238
-1 x1189
<= -0
c1746:
-10000 x238
+1 x790
<= -0
c1747:
-10000 x238
-1 x790
<= -0
c1748:
+10000 x238
-11 x514
+1 x790
-1 x1047
<= +10000
c1749:
-10000 x238
-11 x514
+1 x790
-1 x1047
>= -10000
c1750:
-20 x239
+1 x1190
<= -0
c1751:
+1 x239
-1 x1190
<= -0
c1752:
-10000 x239
+1 x791
<= -0
c1753:
-10000 x239
-1 x791
<= -0
c1754:
+10000 x239
-9 x515
+1 x791
-1 x1050
<= +10000
c1755:
-10000 x239
-9 x515
+1 x791
-1 x1050
>= -10000
c1756:
-20 x240
+1 x1191
<= -0
c1757:
+1 x240
-1 x1191
<= -0
c1758:
-10000 x240
+1 x792
<= -0
c1759:
-10000 x240
-1 x792
<= -0
c1760:
+10000 x240
-2 x516
+1 x792
-1 x1029
<= +10000
c1761:
-10000 x240
-2 x516
+1 x792
-1 x1029
>= -10000
c1762:
-20 x241
+1 x1192
<= -0
c1763:
+1 x241
-1 x1192
<= -0
c1764:
-10000 x241
+1 x793
<= -0
c1765:
-10000 x241
-1 x793
<= -0
c1766:
+10000 x241
-13 x517
+1 x793
-1 x1029
<= +10000
c1767:
-10000 x241
-13 x517
+1 x793
-1 x1029
>= -10000
c1768:
-20 x242
+1 x1193
<= -0
c1769:
+1 x242
-1 x1193
<= -0
c1770:
-10000 x242
+1 x794
<= -0
c1771:
-10000 x242
-1 x794
<= -0
c1772:
+10000 x242
-12 x518
+1 x794
-1 x1021
<= +10000
c1773:
-10000 x242
-12 x518
+1 x794
-1 x1021
>= -10000
c1774:
-20 x243
+1 x1194
<= -0
c1775:
+1 x243
-1 x1194
<= -0
c1776:
-10000 x243
+1 x795
<= -0
c1777:
-10000 x243
-1 x795
<= -0
c1778:
+10000 x243
-7 x519
+1 x795
-1 x1055
<= +10000
c1779:
-10000 x243
-7 x519
+1 x795
-1 x1055
>= -10000
c1780:
-20 x244
+1 x1195
<= -0
c1781:
+1 x244
-1 x1195
<= -0
c1782:
-10000 x244
+1 x796
<= -0
c1783:
-10000 x244
-1 x796
<= -0
c1784:
+10000 x244
-6 x520
+1 x796
-1 x1023
<= +10000
c1785:
-10000 x244
-6 x520
+1 x796
-1 x1023
>= -10000
c1786:
-20 x245
+1 x1196
<= -0
c1787:
+1 x245
-1 x1196
<= -0
c1788:
-10000 x245
+1 x797
<= -0
c1789:
-10000 x245
-1 x797
<= -0
c1790:
+10000 x245
-3 x521
+1 x797
-1 x1023
<= +10000
c1791:
-10000 x245
-3 x521
+1 x797
-1 x1023
>= -10000
c1792:
-20 x246
+1 x1197
<= -0
c1793:
+1 x246
-1 x1197
<= -0
c1794:
-10000 x246
+1 x798
<= -0
c1795:
-10000 x246
-1 x798
<= -0
c1796:
+10000 x246
-6 x522
+1 x798
-1 x1063
<= +10000
c1797:
-10000 x246
-6 x522
+1 x798
-1 x1063
>= -10000
c1798:
-20 x247
+1 x1198
<= -0
c1799:
+1 x247
-1 x1198
<= -0
c1800:
-10000 x247
+1 x799
<= -0
c1801:
-10000 x247
-1 x799
<= -0
c1802:
+10000 x247
-12 x523
+1 x799
-1 x1063
<= +10000
c1803:
-10000 x247
-12 x523
+1 x799
-1 x1063
>= -10000
c1804:
-20 x248
+1 x1199
<= -0
c1805:
+1 x248
-1 x1199
<= -0
c1806:
-10000 x248
+1 x800
<= -0
c1807:
-10000 x248
-1 x800
<= -0
c1808:
+10000 x248
-10 x524
+1 x800
-1 x1060
<= +10000
c1809:
-10000 x248
-10 x524
+1 x800
-1 x1060
>= -10000
c1810:
-20 x249
+1 x1200
<= -0
c1811:
+1 x249
-1 x1200
<= -0
c1812:
-10000 x249
+1 x801
<= -0
c1813:
-10000 x249
-1 x801
<= -0
c1814:
+10000 x249
-11 x525
+1 x801
-1 x1062
<= +10000
c1815:
-10000 x249
-11 x525
+1 x801
-1 x1062
>= -10000
c1816:
-20 x250
+1 x1201
<= -0
c1817:
+1 x250
-1 x1201
<= -0
c1818:
-10000 x250
+1 x802
<= -0
c1819:
-10000 x250
-1 x802
<= -0
c1820:
+10000 x250
-18 x526
+1 x802
-1 x1062
<= +10000
c1821:
-10000 x250
-18 x526
+1 x802
-1 x1062
>= -10000
c1822:
-20 x251
+1 x1202
<= -0
c1823:
+1 x251
-1 x1202
<= -0
c1824:
-10000 x251
+1 x803
<= -0
c1825:
-10000 x251
-1 x803
<= -0
c1826:
+10000 x251
-23 x527
+1 x803
-1 x1062
<= +10000
c1827:
-10000 x251
-23 x527
+1 x803
-1 x1062
>= -10000
c1828:
-20 x252
+1 x1203
<= -0
c1829:
+1 x252
-1 x1203
<= -0
c1830:
-10000 x252
+1 x804
<= -0
c1831:
-10000 x252
-1 x804
<= -0
c1832:
+10000 x252
-14 x528
+1 x804
-1 x1028
<= +10000
c1833:
-10000 x252
-14 x528
+1 x804
-1 x1028
>= -10000
c1834:
-20 x253
+1 x1204
<= -0
c1835:
+1 x253
-1 x1204
<= -0
c1836:
-10000 x253
+1 x805
<= -0
c1837:
-10000 x253
-1 x805
<= -0
c1838:
+10000 x253
-16 x529
+1 x805
-1 x1062
<= +10000
c1839:
-10000 x253
-16 x529
+1 x805
-1 x1062
>= -10000
c1840:
-20 x254
+1 x1205
<= -0
c1841:
+1 x254
-1 x1205
<= -0
c1842:
-10000 x254
+1 x806
<= -0
c1843:
-10000 x254
-1 x806
<= -0
c1844:
+10000 x254
-16 x530
+1 x806
-1 x1062
<= +10000
c1845:
-10000 x254
-16 x530
+1 x806
-1 x1062
>= -10000
c1846:
-20 x255
+1 x1206
<= -0
c1847:
+1 x255
-1 x1206
<= -0
c1848:
-10000 x255
+1 x807
<= -0
c1849:
-10000 x255
-1 x807
<= -0
c1850:
+10000 x255
-6 x531
+1 x807
-1 x1019
<= +10000
c1851:
-10000 x255
-6 x531
+1 x807
-1 x1019
>= -10000
c1852:
-20 x256
+1 x1207
<= -0
c1853:
+1 x256
-1 x1207
<= -0
c1854:
-10000 x256
+1 x808
<= -0
c1855:
-10000 x256
-1 x808
<= -0
c1856:
+10000 x256
-9 x532
+1 x808
-1 x1019
<= +10000
c1857:
-10000 x256
-9 x532
+1 x808
-1 x1019
>= -10000
c1858:
-20 x257
+1 x1208
<= -0
c1859:
+1 x257
-1 x1208
<= -0
c1860:
-10000 x257
+1 x809
<= -0
c1861:
-10000 x257
-1 x809
<= -0
c1862:
+10000 x257
-18 x533
+1 x809
-1 x1019
<= +10000
c1863:
-10000 x257
-18 x533
+1 x809
-1 x1019
>= -10000
c1864:
-20 x258
+1 x1209
<= -0
c1865:
+1 x258
-1 x1209
<= -0
c1866:
-10000 x258
+1 x810
<= -0
c1867:
-10000 x258
-1 x810
<= -0
c1868:
+10000 x258
-13 x534
+1 x810
-1 x1054
<= +10000
c1869:
-10000 x258
-13 x534
+1 x810
-1 x1054
>= -10000
c1870:
-20 x259
+1 x1210
<= -0
c1871:
+1 x259
-1 x1210
<= -0
c1872:
-10000 x259
+1 x811
<= -0
c1873:
-10000 x259
-1 x811
<= -0
c1874:
+10000 x259
-19 x535
+1 x811
-1 x1054
<= +10000
c1875:
-10000 x259
-19 x535
+1 x811
-1 x1054
>= -10000
c1876:
-20 x260
+1 x1211
<= -0
c1877:
+1 x260
-1 x1211
<= -0
c1878:
-10000 x260
+1 x812
<= -0
c1879:
-10000 x260
-1 x812
<= -0
c1880:
+10000 x260
-14 x536
+1 x812
-1 x1030
<= +10000
c1881:
-10000 x260
-14 x536
+1 x812
-1 x1030
>= -10000
c1882:
-20 x261
+1 x1212
<= -0
c1883:
+1 x261
-1 x1212
<= -0
c1884:
-10000 x261
+1 x813
<= -0
c1885:
-10000 x261
-1 x813
<= -0
c1886:
+10000 x261
-8 x537
+1 x813
-1 x1018
<= +10000
c1887:
-10000 x261
-8 x537
+1 x813
-1 x1018
>= -10000
c1888:
-20 x262
+1 x1213
<= -0
c1889:
+1 x262
-1 x1213
<= -0
c1890:
-10000 x262
+1 x814
<= -0
c1891:
-10000 x262
-1 x814
<= -0
c1892:
+10000 x262
-9 x538
+1 x814
-1 x1018
<= +10000
c1893:
-10000 x262
-9 x538
+1 x814
-1 x1018
>= -10000
c1894:
-20 x263
+1 x1214
<= -0
c1895:
+1 x263
-1 x1214
<= -0
c1896:
-10000 x263
+1 x815
<= -0
c1897:
-10000 x263
-1 x815
<= -0
c1898:
+10000 x263
-14 x539
+1 x815
-1 x1024
<= +10000
c1899:
-10000 x263
-14 x539
+1 x815
-1 x1024
>= -10000
c1900:
-20 x264
+1 x1215
<= -0
c1901:
+1 x264
-1 x1215
<= -0
c1902:
-10000 x264
+1 x816
<= -0
c1903:
-10000 x264
-1 x816
<= -0
c1904:
+10000 x264
-9 x540
+1 x816
-1 x1017
<= +10000
c1905:
-10000 x264
-9 x540
+1 x816
-1 x1017
>= -10000
c1906:
-20 x265
+1 x1216
<= -0
c1907:
+1 x265
-1 x1216
<= -0
c1908:
-10000 x265
+1 x817
<= -0
c1909:
-10000 x265
-1 x817
<= -0
c1910:
+10000 x265
-11 x541
+1 x817
-1 x1017
<= +10000
c1911:
-10000 x265
-11 x541
+1 x817
-1 x1017
>= -10000
c1912:
-20 x266
+1 x1217
<= -0
c1913:
+1 x266
-1 x1217
<= -0
c1914:
-10000 x266
+1 x818
<= -0
c1915:
-10000 x266
-1 x818
<= -0
c1916:
+10000 x266
-24 x542
+1 x818
-1 x1046
<= +10000
c1917:
-10000 x266
-24 x542
+1 x818
-1 x1046
>= -10000
c1918:
-20 x267
+1 x1218
<= -0
c1919:
+1 x267
-1 x1218
<= -0
c1920:
-10000 x267
+1 x819
<= -0
c1921:
-10000 x267
-1 x819
<= -0
c1922:
+10000 x267
-21 x543
+1 x819
-1 x1017
<= +10000
c1923:
-10000 x267
-21 x543
+1 x819
-1 x1017
>= -10000
c1924:
-20 x268
+1 x1219
<= -0
c1925:
+1 x268
-1 x1219
<= -0
c1926:
-10000 x268
+1 x820
<= -0
c1927:
-10000 x268
-1 x820
<= -0
c1928:
+10000 x268
-24 x544
+1 x820
-1 x1046
<= +10000
c1929:
-10000 x268
-24 x544
+1 x820
-1 x1046
>= -10000
c1930:
-20 x269
+1 x1220
<= -0
c1931:
+1 x269
-1 x1220
<= -0
c1932:
-10000 x269
+1 x821
<= -0
c1933:
-10000 x269
-1 x821
<= -0
c1934:
+10000 x269
-15 x545
+1 x821
-1 x1046
<= +10000
c1935:
-10000 x269
-15 x545
+1 x821
-1 x1046
>= -10000
c1936:
-20 x270
+1 x1221
<= -0
c1937:
+1 x270
-1 x1221
<= -0
c1938:
-10000 x270
+1 x822
<= -0
c1939:
-10000 x270
-1 x822
<= -0
c1940:
+10000 x270
-5 x546
+1 x822
-1 x1053
<= +10000
c1941:
-10000 x270
-5 x546
+1 x822
-1 x1053
>= -10000
c1942:
-20 x271
+1 x1222
<= -0
c1943:
+1 x271
-1 x1222
<= -0
c1944:
-10000 x271
+1 x823
<= -0
c1945:
-10000 x271
-1 x823
<= -0
c1946:
+10000 x271
-10 x547
+1 x823
-1 x1046
<= +10000
c1947:
-10000 x271
-10 x547
+1 x823
-1 x1046
>= -10000
c1948:
-20 x272
+1 x1223
<= -0
c1949:
+1 x272
-1 x1223
<= -0
c1950:
-10000 x272
+1 x824
<= -0
c1951:
-10000 x272
-1 x824
<= -0
c1952:
+10000 x272
-18 x548
+1 x824
-1 x1029
<= +10000
c1953:
-10000 x272
-18 x548
+1 x824
-1 x1029
>= -10000
c1954:
-20 x273
+1 x1224
<= -0
c1955:
+1 x273
-1 x1224
<= -0
c1956:
-10000 x273
+1 x825
<= -0
c1957:
-10000 x273
-1 x825
<= -0
c1958:
+10000 x273
-19 x549
+1 x825
-1 x1046
<= +10000
c1959:
-10000 x273
-19 x549
+1 x825
-1 x1046
>= -10000
c1960:
-20 x274
+1 x1225
<= -0
c1961:
+1 x274
-1 x1225
<= -0
c1962:
-10000 x274
+1 x826
<= -0
c1963:
-10000 x274
-1 x826
<= -0
c1964:
+10000 x274
-11 x550
+1 x826
-1 x1053
<= +10000
c1965:
-10000 x274
-11 x550
+1 x826
-1 x1053
>= -10000
c1966:
-20 x275
+1 x1226
<= -0
c1967:
+1 x275
-1 x1226
<= -0
c1968:
-10000 x275
+1 x827
<= -0
c1969:
-10000 x275
-1 x827
<= -0
c1970:
+10000 x275
-10 x551
+1 x827
-1 x1053
<= +10000
c1971:
-10000 x275
-10 x551
+1 x827
-1 x1053
>= -10000
c1972:
-20 x276
+1 x1227
<= -0
c1973:
+1 x276
-1 x1227
<= -0
c1974:
-10000 x276
+1 x828
<= -0
c1975:
-10000 x276
-1 x828
<= -0
c1976:
+10000 x276
-38 x552
+1 x828
-1 x1038
<= +10000
c1977:
-10000 x276
-38 x552
+1 x828
-1 x1038
>= -10000
c1978:
-20 x277
+1 x1228
<= -0
c1979:
+1 x277
-1 x1228
<= -0
c1980:
-10000 x277
+1 x829
<= -0
c1981:
-10000 x277
-1 x829
<= -0
c1982:
+10000 x277
-14 x553
+1 x829
-1 x1020
<= +10000
c1983:
-10000 x277
-14 x553
+1 x829
-1 x1020
>= -10000
c1984:
-20 x278
+1 x1229
<= -0
c1985:
+1 x278
-1 x1229
<= -0
c1986:
-10000 x278
+1 x830
<= -0
c1987:
-10000 x278
-1 x830
<= -0
c1988:
+10000 x278
-47 x554
+1 x830
-1 x1040
<= +10000
c1989:
-10000 x278
-47 x554
+1 x830
-1 x1040
>= -10000
c1990:
-20 x279
+1 x1230
<= -0
c1991:
+1 x279
-1 x1230
<= -0
c1992:
-10000 x279
+1 x831
<= -0
c1993:
-10000 x279
-1 x831
<= -0
c1994:
+10000 x279
-25 x555
+1 x831
-1 x1034
<= +10000
c1995:
-10000 x279
-25 x555
+1 x831
-1 x1034
>= -10000
c1996:
-20 x280
+1 x1231
<= -0
c1997:
+1 x280
-1 x1231
<= -0
c1998:
-10000 x280
+1 x832
<= -0
c1999:
-10000 x280
-1 x832
<= -0
c2000:
+10000 x280
-37 x556
+1 x832
-1 x1032
<= +10000
c2001:
-10000 x280
-37 x556
+1 x832
-1 x1032
>= -10000
c2002:
-20 x281
+1 x1232
<= -0
c2003:
+1 x281
-1 x1232
<= -0
c2004:
-10000 x281
+1 x833
<= -0
c2005:
-10000 x281
-1 x833
<= -0
c2006:
+10000 x281
-19 x557
+1 x833
-1 x1065
<= +10000
c2007:
-10000 x281
-19 x557
+1 x833
-1 x1065
>= -10000
c2008:
-20 x282
+1 x1233
<= -0
c2009:
+1 x282
-1 x1233
<= -0
c2010:
-10000 x282
+1 x834
<= -0
c2011:
-10000 x282
-1 x834
<= -0
c2012:
+10000 x282
-24 x558
+1 x834
-1 x1067
<= +10000
c2013:
-10000 x282
-24 x558
+1 x834
-1 x1067
>= -10000
c2014:
-20 x283
+1 x1234
<= -0
c2015:
+1 x283
-1 x1234
<= -0
c2016:
-10000 x283
+1 x835
<= -0
c2017:
-10000 x283
-1 x835
<= -0
c2018:
+10000 x283
-28 x559
+1 x835
-1 x1043
<= +10000
c2019:
-10000 x283
-28 x559
+1 x835
-1 x1043
>= -10000
c2020:
-20 x284
+1 x1235
<= -0
c2021:
+1 x284
-1 x1235
<= -0
c2022:
-10000 x284
+1 x836
<= -0
c2023:
-10000 x284
-1 x836
<= -0
c2024:
+10000 x284
-24 x560
+1 x836
-1 x1037
<= +10000
c2025:
-10000 x284
-24 x560
+1 x836
-1 x1037
>= -10000
c2026:
-20 x285
+1 x1236
<= -0
c2027:
+1 x285
-1 x1236
<= -0
c2028:
-10000 x285
+1 x837
<= -0
c2029:
-10000 x285
-1 x837
<= -0
c2030:
+10000 x285
-8 x561
+1 x837
-1 x1045
<= +10000
c2031:
-10000 x285
-8 x561
+1 x837
-1 x1045
>= -10000
c2032:
-20 x286
+1 x1237
<= -0
c2033:
+1 x286
-1 x1237
<= -0
c2034:
-10000 x286
+1 x838
<= -0
c2035:
-10000 x286
-1 x838
<= -0
c2036:
+10000 x286
-35 x562
+1 x838
-1 x1026
<= +10000
c2037:
-10000 x286
-35 x562
+1 x838
-1 x1026
>= -10000
c2038:
-20 x287
+1 x1238
<= -0
c2039:
+1 x287
-1 x1238
<= -0
c2040:
-10000 x287
+1 x839
<= -0
c2041:
-10000 x287
-1 x839
<= -0
c2042:
+10000 x287
-51 x563
+1 x839
-1 x1038
<= +10000
c2043:
-10000 x287
-51 x563
+1 x839
-1 x1038
>= -10000
c2044:
-20 x288
+1 x1239
<= -0
c2045:
+1 x288
-1 x1239
<= -0
c2046:
-10000 x288
+1 x840
<= -0
c2047:
-10000 x288
-1 x840
<= -0
c2048:
+10000 x288
-11 x564
+1 x840
-1 x1026
<= +10000
c2049:
-10000 x288
-11 x564
+1 x840
-1 x1026
>= -10000
c2050:
-20 x289
+1 x1240
<= -0
c2051:
+1 x289
-1 x1240
<= -0
c2052:
-10000 x289
+1 x841
<= -0
c2053:
-10000 x289
-1 x841
<= -0
c2054:
+10000 x289
-40 x565
+1 x841
-1 x1038
<= +10000
c2055:
-10000 x289
-40 x565
+1 x841
-1 x1038
>= -10000
c2056:
-20 x290
+1 x1241
<= -0
c2057:
+1 x290
-1 x1241
<= -0
c2058:
-10000 x290
+1 x842
<= -0
c2059:
-10000 x290
-1 x842
<= -0
c2060:
+10000 x290
-31 x566
+1 x842
-1 x1056
<= +10000
c2061:
-10000 x290
-31 x566
+1 x842
-1 x1056
>= -10000
c2062:
-20 x291
+1 x1242
<= -0
c2063:
+1 x291
-1 x1242
<= -0
c2064:
-10000 x291
+1 x843
<= -0
c2065:
-10000 x291
-1 x843
<= -0
c2066:
+10000 x291
-24 x567
+1 x843
-1 x1038
<= +10000
c2067:
-10000 x291
-24 x567
+1 x843
-1 x1038
>= -10000
c2068:
-20 x292
+1 x1243
<= -0
c2069:
+1 x292
-1 x1243
<= -0
c2070:
-10000 x292
+1 x844
<= -0
c2071:
-10000 x292
-1 x844
<= -0
c2072:
+10000 x292
-13 x568
+1 x844
-1 x1036
<= +10000
c2073:
-10000 x292
-13 x568
+1 x844
-1 x1036
>= -10000
c2074:
-20 x293
+1 x1244
<= -0
c2075:
+1 x293
-1 x1244
<= -0
c2076:
-10000 x293
+1 x845
<= -0
c2077:
-10000 x293
-1 x845
<= -0
c2078:
+10000 x293
-30 x569
+1 x845
-1 x1038
<= +10000
c2079:
-10000 x293
-30 x569
+1 x845
-1 x1038
>= -10000
c2080:
-20 x294
+1 x1245
<= -0
c2081:
+1 x294
-1 x1245
<= -0
c2082:
-10000 x294
+1 x846
<= -0
c2083:
-10000 x294
-1 x846
<= -0
c2084:
+10000 x294
-10 x570
+1 x846
-1 x1057
<= +10000
c2085:
-10000 x294
-10 x570
+1 x846
-1 x1057
>= -10000
c2086:
-20 x295
+1 x1246
<= -0
c2087:
+1 x295
-1 x1246
<= -0
c2088:
-10000 x295
+1 x847
<= -0
c2089:
-10000 x295
-1 x847
<= -0
c2090:
+10000 x295
-26 x571
+1 x847
-1 x1057
<= +10000
c2091:
-10000 x295
-26 x571
+1 x847
-1 x1057
>= -10000
c2092:
-20 x296
+1 x1247
<= -0
c2093:
+1 x296
-1 x1247
<= -0
c2094:
-10000 x296
+1 x848
<= -0
c2095:
-10000 x296
-1 x848
<= -0
c2096:
+10000 x296
-30 x572
+1 x848
-1 x1020
<= +10000
c2097:
-10000 x296
-30 x572
+1 x848
-1 x1020
>= -10000
c2098:
-20 x297
+1 x1248
<= -0
c2099:
+1 x297
-1 x1248
<= -0
c2100:
-10000 x297
+1 x849
<= -0
c2101:
-10000 x297
-1 x849
<= -0
c2102:
+10000 x297
-30 x573
+1 x849
-1 x1051
<= +10000
c2103:
-10000 x297
-30 x573
+1 x849
-1 x1051
>= -10000
c2104:
-20 x298
+1 x1249
<= -0
c2105:
+1 x298
-1 x1249
<= -0
c2106:
-10000 x298
+1 x850
<= -0
c2107:
-10000 x298
-1 x850
<= -0
c2108:
+10000 x298
-13 x574
+1 x850
-1 x1051
<= +10000
c2109:
-10000 x298
-13 x574
+1 x850
-1 x1051
>= -10000
c2110:
-20 x299
+1 x1250
<= -0
c2111:
+1 x299
-1 x1250
<= -0
c2112:
-10000 x299
+1 x851
<= -0
c2113:
-10000 x299
-1 x851
<= -0
c2114:
+10000 x299
-31 x575
+1 x851
-1 x1040
<= +10000
c2115:
-10000 x299
-31 x575
+1 x851
-1 x1040
>= -10000
c2116:
-20 x300
+1 x1251
<= -0
c2117:
+1 x300
-1 x1251
<= -0
c2118:
-10000 x300
+1 x852
<= -0
c2119:
-10000 x300
-1 x852
<= -0
c2120:
+10000 x300
-20 x576
+1 x852
-1 x1059
<= +10000
c2121:
-10000 x300
-20 x576
+1 x852
-1 x1059
>= -10000
c2122:
-20 x301
+1 x1252
<= -0
c2123:
+1 x301
-1 x1252
<= -0
c2124:
-10000 x301
+1 x853
<= -0
c2125:
-10000 x301
-1 x853
<= -0
c2126:
+10000 x301
-21 x577
+1 x853
-1 x1040
<= +10000
c2127:
-10000 x301
-21 x577
+1 x853
-1 x1040
>= -10000
c2128:
-20 x302
+1 x1253
<= -0
c2129:
+1 x302
-1 x1253
<= -0
c2130:
-10000 x302
+1 x854
<= -0
c2131:
-10000 x302
-1 x854
<= -0
c2132:
+10000 x302
-30 x578
+1 x854
-1 x1066
<= +10000
c2133:
-10000 x302
-30 x578
+1 x854
-1 x1066
>= -10000
c2134:
-20 x303
+1 x1254
<= -0
c2135:
+1 x303
-1 x1254
<= -0
c2136:
-10000 x303
+1 x855
<= -0
c2137:
-10000 x303
-1 x855
<= -0
c2138:
+10000 x303
-22 x579
+1 x855
-1 x1066
<= +10000
c2139:
-10000 x303
-22 x579
+1 x855
-1 x1066
>= -10000
c2140:
-20 x304
+1 x1255
<= -0
c2141:
+1 x304
-1 x1255
<= -0
c2142:
-10000 x304
+1 x856
<= -0
c2143:
-10000 x304
-1 x856
<= -0
c2144:
+10000 x304
-13 x580
+1 x856
-1 x1042
<= +10000
c2145:
-10000 x304
-13 x580
+1 x856
-1 x1042
>= -10000
c2146:
-20 x305
+1 x1256
<= -0
c2147:
+1 x305
-1 x1256
<= -0
c2148:
-10000 x305
+1 x857
<= -0
c2149:
-10000 x305
-1 x857
<= -0
c2150:
+10000 x305
-6 x581
+1 x857
-1 x1042
<= +10000
c2151:
-10000 x305
-6 x581
+1 x857
-1 x1042
>= -10000
c2152:
-20 x306
+1 x1257
<= -0
c2153:
+1 x306
-1 x1257
<= -0
c2154:
-10000 x306
+1 x858
<= -0
c2155:
-10000 x306
-1 x858
<= -0
c2156:
+10000 x306
-11 x582
+1 x858
-1 x1061
<= +10000
c2157:
-10000 x306
-11 x582
+1 x858
-1 x1061
>= -10000
c2158:
-20 x307
+1 x1258
<= -0
c2159:
+1 x307
-1 x1258
<= -0
c2160:
-10000 x307
+1 x859
<= -0
c2161:
-10000 x307
-1 x859
<= -0
c2162:
+10000 x307
-16 x583
+1 x859
-1 x1061
<= +10000
c2163:
-10000 x307
-16 x583
+1 x859
-1 x1061
>= -10000
c2164:
-20 x308
+1 x1259
<= -0
c2165:
+1 x308
-1 x1259
<= -0
c2166:
-10000 x308
+1 x860
<= -0
c2167:
-10000 x308
-1 x860
<= -0
c2168:
+10000 x308
-20 x584
+1 x860
-1 x1064
<= +10000
c2169:
-10000 x308
-20 x584
+1 x860
-1 x1064
>= -10000
c2170:
-20 x309
+1 x1260
<= -0
c2171:
+1 x309
-1 x1260
<= -0
c2172:
-10000 x309
+1 x861
<= -0
c2173:
-10000 x309
-1 x861
<= -0
c2174:
+10000 x309
-19 x585
+1 x861
-1 x1064
<= +10000
c2175:
-10000 x309
-19 x585
+1 x861
-1 x1064
>= -10000
c2176:
-20 x310
+1 x1261
<= -0
c2177:
+1 x310
-1 x1261
<= -0
c2178:
-10000 x310
+1 x862
<= -0
c2179:
-10000 x310
-1 x862
<= -0
c2180:
+10000 x310
-25 x586
+1 x862
-1 x1064
<= +10000
c2181:
-10000 x310
-25 x586
+1 x862
-1 x1064
>= -10000
c2182:
-20 x311
+1 x1262
<= -0
c2183:
+1 x311
-1 x1262
<= -0
c2184:
-10000 x311
+1 x863
<= -0
c2185:
-10000 x311
-1 x863
<= -0
c2186:
+10000 x311
-21 x587
+1 x863
-1 x1033
<= +10000
c2187:
-10000 x311
-21 x587
+1 x863
-1 x1033
>= -10000
c2188:
-20 x312
+1 x1263
<= -0
c2189:
+1 x312
-1 x1263
<= -0
c2190:
-10000 x312
+1 x864
<= -0
c2191:
-10000 x312
-1 x864
<= -0
c2192:
+10000 x312
-17 x588
+1 x864
-1 x1033
<= +10000
c2193:
-10000 x312
-17 x588
+1 x864
-1 x1033
>= -10000
c2194:
-20 x313
+1 x1264
<= -0
c2195:
+1 x313
-1 x1264
<= -0
c2196:
-10000 x313
+1 x865
<= -0
c2197:
-10000 x313
-1 x865
<= -0
c2198:
+10000 x313
-10 x589
+1 x865
-1 x1044
<= +10000
c2199:
-10000 x313
-10 x589
+1 x865
-1 x1044
>= -10000
c2200:
-20 x314
+1 x1265
<= -0
c2201:
+1 x314
-1 x1265
<= -0
c2202:
-10000 x314
+1 x866
<= -0
c2203:
-10000 x314
-1 x866
<= -0
c2204:
+10000 x314
-11 x590
+1 x866
-1 x1044
<= +10000
c2205:
-10000 x314
-11 x590
+1 x866
-1 x1044
>= -10000
c2206:
-20 x315
+1 x1266
<= -0
c2207:
+1 x315
-1 x1266
<= -0
c2208:
-10000 x315
+1 x867
<= -0
c2209:
-10000 x315
-1 x867
<= -0
c2210:
+10000 x315
-26 x591
+1 x867
-1 x1044
<= +10000
c2211:
-10000 x315
-26 x591
+1 x867
-1 x1044
>= -10000
c2212:
-20 x316
+1 x1267
<= -0
c2213:
+1 x316
-1 x1267
<= -0
c2214:
-10000 x316
+1 x868
<= -0
c2215:
-10000 x316
-1 x868
<= -0
c2216:
+10000 x316
-24 x592
+1 x868
-1 x1027
<= +10000
c2217:
-10000 x316
-24 x592
+1 x868
-1 x1027
>= -10000
c2218:
-20 x317
+1 x1268
<= -0
c2219:
+1 x317
-1 x1268
<= -0
c2220:
-10000 x317
+1 x869
<= -0
c2221:
-10000 x317
-1 x869
<= -0
c2222:
+10000 x317
-34 x593
+1 x869
-1 x1027
<= +10000
c2223:
-10000 x317
-34 x593
+1 x869
-1 x1027
>= -10000
c2224:
-20 x318
+1 x1269
<= -0
c2225:
+1 x318
-1 x1269
<= -0
c2226:
-10000 x318
+1 x870
<= -0
c2227:
-10000 x318
-1 x870
<= -0
c2228:
+10000 x318
-13 x594
+1 x870
-1 x1047
<= +10000
c2229:
-10000 x318
-13 x594
+1 x870
-1 x1047
>= -10000
c2230:
-20 x319
+1 x1270
<= -0
c2231:
+1 x319
-1 x1270
<= -0
c2232:
-10000 x319
+1 x871
<= -0
c2233:
-10000 x319
-1 x871
<= -0
c2234:
+10000 x319
-30 x595
+1 x871
-1 x1047
<= +10000
c2235:
-10000 x319
-30 x595
+1 x871
-1 x1047
>= -10000
c2236:
-20 x320
+1 x1271
<= -0
c2237:
+1 x320
-1 x1271
<= -0
c2238:
-10000 x320
+1 x872
<= -0
c2239:
-10000 x320
-1 x872
<= -0
c2240:
+10000 x320
-12 x596
+1 x872
-1 x1047
<= +10000
c2241:
-10000 x320
-12 x596
+1 x872
-1 x1047
>= -10000
c2242:
-20 x321
+1 x1272
<= -0
c2243:
+1 x321
-1 x1272
<= -0
c2244:
-10000 x321
+1 x873
<= -0
c2245:
-10000 x321
-1 x873
<= -0
c2246:
+10000 x321
-7 x597
+1 x873
-1 x1050
<= +10000
c2247:
-10000 x321
-7 x597
+1 x873
-1 x1050
>= -10000
c2248:
-20 x322
+1 x1273
<= -0
c2249:
+1 x322
-1 x1273
<= -0
c2250:
-10000 x322
+1 x874
<= -0
c2251:
-10000 x322
-1 x874
<= -0
c2252:
+10000 x322
-11 x598
+1 x874
-1 x1050
<= +10000
c2253:
-10000 x322
-11 x598
+1 x874
-1 x1050
>= -10000
c2254:
-20 x323
+1 x1274
<= -0
c2255:
+1 x323
-1 x1274
<= -0
c2256:
-10000 x323
+1 x875
<= -0
c2257:
-10000 x323
-1 x875
<= -0
c2258:
+10000 x323
-19 x599
+1 x875
-1 x1043
<= +10000
c2259:
-10000 x323
-19 x599
+1 x875
-1 x1043
>= -10000
c2260:
-20 x324
+1 x1275
<= -0
c2261:
+1 x324
-1 x1275
<= -0
c2262:
-10000 x324
+1 x876
<= -0
c2263:
-10000 x324
-1 x876
<= -0
c2264:
+10000 x324
-10 x600
+1 x876
-1 x1021
<= +10000
c2265:
-10000 x324
-10 x600
+1 x876
-1 x1021
>= -10000
c2266:
-20 x325
+1 x1276
<= -0
c2267:
+1 x325
-1 x1276
<= -0
c2268:
-10000 x325
+1 x877
<= -0
c2269:
-10000 x325
-1 x877
<= -0
c2270:
+10000 x325
-11 x601
+1 x877
-1 x1043
<= +10000
c2271:
-10000 x325
-11 x601
+1 x877
-1 x1043
>= -10000
c2272:
-20 x326
+1 x1277
<= -0
c2273:
+1 x326
-1 x1277
<= -0
c2274:
-10000 x326
+1 x878
<= -0
c2275:
-10000 x326
-1 x878
<= -0
c2276:
+10000 x326
-7 x602
+1 x878
-1 x1055
<= +10000
c2277:
-10000 x326
-7 x602
+1 x878
-1 x1055
>= -10000
c2278:
-20 x327
+1 x1278
<= -0
c2279:
+1 x327
-1 x1278
<= -0
c2280:
-10000 x327
+1 x879
<= -0
c2281:
-10000 x327
-1 x879
<= -0
c2282:
+10000 x327
-6 x603
+1 x879
-1 x1043
<= +10000
c2283:
-10000 x327
-6 x603
+1 x879
-1 x1043
>= -10000
c2284:
-20 x328
+1 x1279
<= -0
c2285:
+1 x328
-1 x1279
<= -0
c2286:
-10000 x328
+1 x880
<= -0
c2287:
-10000 x328
-1 x880
<= -0
c2288:
+10000 x328
-9 x604
+1 x880
-1 x1060
<= +10000
c2289:
-10000 x328
-9 x604
+1 x880
-1 x1060
>= -10000
c2290:
-20 x329
+1 x1280
<= -0
c2291:
+1 x329
-1 x1280
<= -0
c2292:
-10000 x329
+1 x881
<= -0
c2293:
-10000 x329
-1 x881
<= -0
c2294:
+10000 x329
-11 x605
+1 x881
-1 x1060
<= +10000
c2295:
-10000 x329
-11 x605
+1 x881
-1 x1060
>= -10000
c2296:
-20 x330
+1 x1281
<= -0
c2297:
+1 x330
-1 x1281
<= -0
c2298:
-10000 x330
+1 x882
<= -0
c2299:
-10000 x330
-1 x882
<= -0
c2300:
+10000 x330
-14 x606
+1 x882
-1 x1035
<= +10000
c2301:
-10000 x330
-14 x606
+1 x882
-1 x1035
>= -10000
c2302:
-20 x331
+1 x1282
<= -0
c2303:
+1 x331
-1 x1282
<= -0
c2304:
-10000 x331
+1 x883
<= -0
c2305:
-10000 x331
-1 x883
<= -0
c2306:
+10000 x331
-20 x607
+1 x883
-1 x1035
<= +10000
c2307:
-10000 x331
-20 x607
+1 x883
-1 x1035
>= -10000
c2308:
-20 x332
+1 x1283
<= -0
c2309:
+1 x332
-1 x1283
<= -0
c2310:
-10000 x332
+1 x884
<= -0
c2311:
-10000 x332
-1 x884
<= -0
c2312:
+10000 x332
-4 x608
+1 x884
-1 x1037
<= +10000
c2313:
-10000 x332
-4 x608
+1 x884
-1 x1037
>= -10000
c2314:
-20 x333
+1 x1284
<= -0
c2315:
+1 x333
-1 x1284
<= -0
c2316:
-10000 x333
+1 x885
<= -0
c2317:
-10000 x333
-1 x885
<= -0
c2318:
+10000 x333
-7 x609
+1 x885
-1 x1035
<= +10000
c2319:
-10000 x333
-7 x609
+1 x885
-1 x1035
>= -10000
c2320:
-20 x334
+1 x1285
<= -0
c2321:
+1 x334
-1 x1285
<= -0
c2322:
-10000 x334
+1 x886
<= -0
c2323:
-10000 x334
-1 x886
<= -0
c2324:
+10000 x334
-10 x610
+1 x886
-1 x1037
<= +10000
c2325:
-10000 x334
-10 x610
+1 x886
-1 x1037
>= -10000
c2326:
-20 x335
+1 x1286
<= -0
c2327:
+1 x335
-1 x1286
<= -0
c2328:
-10000 x335
+1 x887
<= -0
c2329:
-10000 x335
-1 x887
<= -0
c2330:
+10000 x335
-14 x611
+1 x887
-1 x1031
<= +10000
c2331:
-10000 x335
-14 x611
+1 x887
-1 x1031
>= -10000
c2332:
-20 x336
+1 x1287
<= -0
c2333:
+1 x336
-1 x1287
<= -0
c2334:
-10000 x336
+1 x888
<= -0
c2335:
-10000 x336
-1 x888
<= -0
c2336:
+10000 x336
-7 x612
+1 x888
-1 x1031
<= +10000
c2337:
-10000 x336
-7 x612
+1 x888
-1 x1031
>= -10000
c2338:
-20 x337
+1 x1288
<= -0
c2339:
+1 x337
-1 x1288
<= -0
c2340:
-10000 x337
+1 x889
<= -0
c2341:
-10000 x337
-1 x889
<= -0
c2342:
+10000 x337
-3 x613
+1 x889
-1 x1045
<= +10000
c2343:
-10000 x337
-3 x613
+1 x889
-1 x1045
>= -10000
c2344:
-20 x338
+1 x1289
<= -0
c2345:
+1 x338
-1 x1289
<= -0
c2346:
-10000 x338
+1 x890
<= -0
c2347:
-10000 x338
-1 x890
<= -0
c2348:
+10000 x338
-12 x614
+1 x890
-1 x1031
<= +10000
c2349:
-10000 x338
-12 x614
+1 x890
-1 x1031
>= -10000
c2350:
-20 x339
+1 x1290
<= -0
c2351:
+1 x339
-1 x1290
<= -0
c2352:
-10000 x339
+1 x891
<= -0
c2353:
-10000 x339
-1 x891
<= -0
c2354:
+10000 x339
-14 x615
+1 x891
-1 x1045
<= +10000
c2355:
-10000 x339
-14 x615
+1 x891
-1 x1045
>= -10000
c2356:
-20 x340
+1 x1291
<= -0
c2357:
+1 x340
-1 x1291
<= -0
c2358:
-10000 x340
+1 x892
<= -0
c2359:
-10000 x340
-1 x892
<= -0
c2360:
+10000 x340
-22 x616
+1 x892
-1 x1026
<= +10000
c2361:
-10000 x340
-22 x616
+1 x892
-1 x1026
>= -10000
c2362:
-20 x341
+1 x1292
<= -0
c2363:
+1 x341
-1 x1292
<= -0
c2364:
-10000 x341
+1 x893
<= -0
c2365:
-10000 x341
-1 x893
<= -0
c2366:
+10000 x341
-20 x617
+1 x893
-1 x1025
<= +10000
c2367:
-10000 x341
-20 x617
+1 x893
-1 x1025
>= -10000
c2368:
-20 x342
+1 x1293
<= -0
c2369:
+1 x342
-1 x1293
<= -0
c2370:
-10000 x342
+1 x894
<= -0
c2371:
-10000 x342
-1 x894
<= -0
c2372:
+10000 x342
-20 x618
+1 x894
-1 x1026
<= +10000
c2373:
-10000 x342
-20 x618
+1 x894
-1 x1026
>= -10000
c2374:
-20 x343
+1 x1294
<= -0
c2375:
+1 x343
-1 x1294
<= -0
c2376:
-10000 x343
+1 x895
<= -0
c2377:
-10000 x343
-1 x895
<= -0
c2378:
+10000 x343
-6 x619
+1 x895
-1 x1039
<= +10000
c2379:
-10000 x343
-6 x619
+1 x895
-1 x1039
>= -10000
c2380:
-20 x344
+1 x1295
<= -0
c2381:
+1 x344
-1 x1295
<= -0
c2382:
-10000 x344
+1 x896
<= -0
c2383:
-10000 x344
-1 x896
<= -0
c2384:
+10000 x344
-16 x620
+1 x896
-1 x1026
<= +10000
c2385:
-10000 x344
-16 x620
+1 x896
-1 x1026
>= -10000
c2386:
-20 x345
+1 x1296
<= -0
c2387:
+1 x345
-1 x1296
<= -0
c2388:
-10000 x345
+1 x897
<= -0
c2389:
-10000 x345
-1 x897
<= -0
c2390:
+10000 x345
-18 x621
+1 x897
-1 x1056
<= +10000
c2391:
-10000 x345
-18 x621
+1 x897
-1 x1056
>= -10000
c2392:
-20 x346
+1 x1297
<= -0
c2393:
+1 x346
-1 x1297
<= -0
c2394:
-10000 x346
+1 x898
<= -0
c2395:
-10000 x346
-1 x898
<= -0
c2396:
+10000 x346
-14 x622
+1 x898
-1 x1039
<= +10000
c2397:
-10000 x346
-14 x622
+1 x898
-1 x1039
>= -10000
c2398:
-20 x347
+1 x1298
<= -0
c2399:
+1 x347
-1 x1298
<= -0
c2400:
-10000 x347
+1 x899
<= -0
c2401:
-10000 x347
-1 x899
<= -0
c2402:
+10000 x347
-17 x623
+1 x899
-1 x1056
<= +10000
c2403:
-10000 x347
-17 x623
+1 x899
-1 x1056
>= -10000
c2404:
-20 x348
+1 x1299
<= -0
c2405:
+1 x348
-1 x1299
<= -0
c2406:
-10000 x348
+1 x900
<= -0
c2407:
-10000 x348
-1 x900
<= -0
c2408:
+10000 x348
-23 x624
+1 x900
-1 x1041
<= +10000
c2409:
-10000 x348
-23 x624
+1 x900
-1 x1041
>= -10000
c2410:
-20 x349
+1 x1300
<= -0
c2411:
+1 x349
-1 x1300
<= -0
c2412:
-10000 x349
+1 x901
<= -0
c2413:
-10000 x349
-1 x901
<= -0
c2414:
+10000 x349
-23 x625
+1 x901
-1 x1041
<= +10000
c2415:
-10000 x349
-23 x625
+1 x901
-1 x1041
>= -10000
c2416:
-20 x350
+1 x1301
<= -0
c2417:
+1 x350
-1 x1301
<= -0
c2418:
-10000 x350
+1 x902
<= -0
c2419:
-10000 x350
-1 x902
<= -0
c2420:
+10000 x350
-26 x626
+1 x902
-1 x1036
<= +10000
c2421:
-10000 x350
-26 x626
+1 x902
-1 x1036
>= -10000
c2422:
-20 x351
+1 x1302
<= -0
c2423:
+1 x351
-1 x1302
<= -0
c2424:
-10000 x351
+1 x903
<= -0
c2425:
-10000 x351
-1 x903
<= -0
c2426:
+10000 x351
-22 x627
+1 x903
-1 x1041
<= +10000
c2427:
-10000 x351
-22 x627
+1 x903
-1 x1041
>= -10000
c2428:
-20 x352
+1 x1303
<= -0
c2429:
+1 x352
-1 x1303
<= -0
c2430:
-10000 x352
+1 x904
<= -0
c2431:
-10000 x352
-1 x904
<= -0
c2432:
+10000 x352
-4 x628
+1 x904
-1 x1051
<= +10000
c2433:
-10000 x352
-4 x628
+1 x904
-1 x1051
>= -10000
c2434:
-20 x353
+1 x1304
<= -0
c2435:
+1 x353
-1 x1304
<= -0
c2436:
-10000 x353
+1 x905
<= -0
c2437:
-10000 x353
-1 x905
<= -0
c2438:
+10000 x353
-13 x629
+1 x905
-1 x1030
<= +10000
c2439:
-10000 x353
-13 x629
+1 x905
-1 x1030
>= -10000
c2440:
-20 x354
+1 x1305
<= -0
c2441:
+1 x354
-1 x1305
<= -0
c2442:
-10000 x354
+1 x906
<= -0
c2443:
-10000 x354
-1 x906
<= -0
c2444:
+10000 x354
-13 x630
+1 x906
-1 x1030
<= +10000
c2445:
-10000 x354
-13 x630
+1 x906
-1 x1030
>= -10000
c2446:
-20 x355
+1 x1306
<= -0
c2447:
+1 x355
-1 x1306
<= -0
c2448:
-10000 x355
+1 x907
<= -0
c2449:
-10000 x355
-1 x907
<= -0
c2450:
+10000 x355
-1 x631
+1 x907
-1 x1024
<= +10000
c2451:
-10000 x355
-1 x631
+1 x907
-1 x1024
>= -10000
c2452:
-20 x356
+1 x1307
<= -0
c2453:
+1 x356
-1 x1307
<= -0
c2454:
-10000 x356
+1 x908
<= -0
c2455:
-10000 x356
-1 x908
<= -0
c2456:
+10000 x356
-24 x632
+1 x908
-1 x1024
<= +10000
c2457:
-10000 x356
-24 x632
+1 x908
-1 x1024
>= -10000
c2458:
-20 x357
+1 x1308
<= -0
c2459:
+1 x357
-1 x1308
<= -0
c2460:
-10000 x357
+1 x909
<= -0
c2461:
-10000 x357
-1 x909
<= -0
c2462:
+10000 x357
-24 x633
+1 x909
-1 x1059
<= +10000
c2463:
-10000 x357
-24 x633
+1 x909
-1 x1059
>= -10000
c2464:
-20 x358
+1 x1309
<= -0
c2465:
+1 x358
-1 x1309
<= -0
c2466:
-10000 x358
+1 x910
<= -0
c2467:
-10000 x358
-1 x910
<= -0
c2468:
+10000 x358
-26 x634
+1 x910
-1 x1066
<= +10000
c2469:
-10000 x358
-26 x634
+1 x910
-1 x1066
>= -10000
c2470:
-20 x359
+1 x1310
<= -0
c2471:
+1 x359
-1 x1310
<= -0
c2472:
-10000 x359
+1 x911
<= -0
c2473:
-10000 x359
-1 x911
<= -0
c2474:
+10000 x359
-18 x635
+1 x911
-1 x1064
<= +10000
c2475:
-10000 x359
-18 x635
+1 x911
-1 x1064
>= -10000
c2476:
-20 x360
+1 x1311
<= -0
c2477:
+1 x360
-1 x1311
<= -0
c2478:
-10000 x360
+1 x912
<= -0
c2479:
-10000 x360
-1 x912
<= -0
c2480:
+10000 x360
-17 x636
+1 x912
-1 x1017
<= +10000
c2481:
-10000 x360
-17 x636
+1 x912
-1 x1017
>= -10000
c2482:
-20 x361
+1 x1312
<= -0
c2483:
+1 x361
-1 x1312
<= -0
c2484:
-10000 x361
+1 x913
<= -0
c2485:
-10000 x361
-1 x913
<= -0
c2486:
+10000 x361
-30 x637
+1 x913
-1 x1017
<= +10000
c2487:
-10000 x361
-30 x637
+1 x913
-1 x1017
>= -10000
c2488:
-20 x362
+1 x1313
<= -0
c2489:
+1 x362
-1 x1313
<= -0
c2490:
-10000 x362
+1 x914
<= -0
c2491:
-10000 x362
-1 x914
<= -0
c2492:
+10000 x362
-23 x638
+1 x914
-1 x1017
<= +10000
c2493:
-10000 x362
-23 x638
+1 x914
-1 x1017
>= -10000
c2494:
-20 x363
+1 x1314
<= -0
c2495:
+1 x363
-1 x1314
<= -0
c2496:
-10000 x363
+1 x915
<= -0
c2497:
-10000 x363
-1 x915
<= -0
c2498:
+10000 x363
-31 x639
+1 x915
-1 x1058
<= +10000
c2499:
-10000 x363
-31 x639
+1 x915
-1 x1058
>= -10000
c2500:
-20 x364
+1 x1315
<= -0
c2501:
+1 x364
-1 x1315
<= -0
c2502:
-10000 x364
+1 x916
<= -0
c2503:
-10000 x364
-1 x916
<= -0
c2504:
+10000 x364
-9 x640
+1 x916
-1 x1058
<= +10000
c2505:
-10000 x364
-9 x640
+1 x916
-1 x1058
>= -10000
c2506:
-20 x365
+1 x1316
<= -0
c2507:
+1 x365
-1 x1316
<= -0
c2508:
-10000 x365
+1 x917
<= -0
c2509:
-10000 x365
-1 x917
<= -0
c2510:
+10000 x365
-27 x641
+1 x917
-1 x1048
<= +10000
c2511:
-10000 x365
-27 x641
+1 x917
-1 x1048
>= -10000
c2512:
-20 x366
+1 x1317
<= -0
c2513:
+1 x366
-1 x1317
<= -0
c2514:
-10000 x366
+1 x918
<= -0
c2515:
-10000 x366
-1 x918
<= -0
c2516:
+10000 x366
-18 x642
+1 x918
-1 x1048
<= +10000
c2517:
-10000 x366
-18 x642
+1 x918
-1 x1048
>= -10000
c2518:
-20 x367
+1 x1318
<= -0
c2519:
+1 x367
-1 x1318
<= -0
c2520:
-10000 x367
+1 x919
<= -0
c2521:
-10000 x367
-1 x919
<= -0
c2522:
+10000 x367
-13 x643
+1 x919
-1 x1048
<= +10000
c2523:
-10000 x367
-13 x643
+1 x919
-1 x1048
>= -10000
c2524:
-20 x368
+1 x1319
<= -0
c2525:
+1 x368
-1 x1319
<= -0
c2526:
-10000 x368
+1 x920
<= -0
c2527:
-10000 x368
-1 x920
<= -0
c2528:
+10000 x368
-14 x644
+1 x920
-1 x1027
<= +10000
c2529:
-10000 x368
-14 x644
+1 x920
-1 x1027
>= -10000
c2530:
-20 x369
+1 x1320
<= -0
c2531:
+1 x369
-1 x1320
<= -0
c2532:
-10000 x369
+1 x921
<= -0
c2533:
-10000 x369
-1 x921
<= -0
c2534:
+10000 x369
-8 x645
+1 x921
-1 x1027
<= +10000
c2535:
-10000 x369
-8 x645
+1 x921
-1 x1027
>= -10000
c2536:
-20 x370
+1 x1321
<= -0
c2537:
+1 x370
-1 x1321
<= -0
c2538:
-10000 x370
+1 x922
<= -0
c2539:
-10000 x370
-1 x922
<= -0
c2540:
+10000 x370
-16 x646
+1 x922
-1 x1046
<= +10000
c2541:
-10000 x370
-16 x646
+1 x922
-1 x1046
>= -10000
c2542:
-20 x371
+1 x1322
<= -0
c2543:
+1 x371
-1 x1322
<= -0
c2544:
-10000 x371
+1 x923
<= -0
c2545:
-10000 x371
-1 x923
<= -0
c2546:
+10000 x371
-15 x647
+1 x923
-1 x1046
<= +10000
c2547:
-10000 x371
-15 x647
+1 x923
-1 x1046
>= -10000
c2548:
-20 x372
+1 x1323
<= -0
c2549:
+1 x372
-1 x1323
<= -0
c2550:
-10000 x372
+1 x924
<= -0
c2551:
-10000 x372
-1 x924
<= -0
c2552:
+10000 x372
-13 x648
+1 x924
-1 x1046
<= +10000
c2553:
-10000 x372
-13 x648
+1 x924
-1 x1046
>= -10000
c2554:
-20 x373
+1 x1324
<= -0
c2555:
+1 x373
-1 x1324
<= -0
c2556:
-10000 x373
+1 x925
<= -0
c2557:
-10000 x373
-1 x925
<= -0
c2558:
+10000 x373
-5 x649
+1 x925
-1 x1022
<= +10000
c2559:
-10000 x373
-5 x649
+1 x925
-1 x1022
>= -10000
c2560:
-20 x374
+1 x1325
<= -0
c2561:
+1 x374
-1 x1325
<= -0
c2562:
-10000 x374
+1 x926
<= -0
c2563:
-10000 x374
-1 x926
<= -0
c2564:
+10000 x374
-9 x650
+1 x926
-1 x1022
<= +10000
c2565:
-10000 x374
-9 x650
+1 x926
-1 x1022
>= -10000
c2566:
-20 x375
+1 x1326
<= -0
c2567:
+1 x375
-1 x1326
<= -0
c2568:
-10000 x375
+1 x927
<= -0
c2569:
-10000 x375
-1 x927
<= -0
c2570:
+10000 x375
-14 x651
+1 x927
-1 x1029
<= +10000
c2571:
-10000 x375
-14 x651
+1 x927
-1 x1029
>= -10000
c2572:
-20 x376
+1 x1327
<= -0
c2573:
+1 x376
-1 x1327
<= -0
c2574:
-10000 x376
+1 x928
<= -0
c2575:
-10000 x376
-1 x928
<= -0
c2576:
+10000 x376
-11 x652
+1 x928
-1 x1029
<= +10000
c2577:
-10000 x376
-11 x652
+1 x928
-1 x1029
>= -10000
c2578:
-20 x377
+1 x1328
<= -0
c2579:
+1 x377
-1 x1328
<= -0
c2580:
-10000 x377
+1 x929
<= -0
c2581:
-10000 x377
-1 x929
<= -0
c2582:
+10000 x377
-9 x653
+1 x929
-1 x1029
<= +10000
c2583:
-10000 x377
-9 x653
+1 x929
-1 x1029
>= -10000
c2584:
-20 x378
+1 x1329
<= -0
c2585:
+1 x378
-1 x1329
<= -0
c2586:
-10000 x378
+1 x930
<= -0
c2587:
-10000 x378
-1 x930
<= -0
c2588:
+10000 x378
-2 x654
+1 x930
-1 x1021
<= +10000
c2589:
-10000 x378
-2 x654
+1 x930
-1 x1021
>= -10000
c2590:
-20 x379
+1 x1330
<= -0
c2591:
+1 x379
-1 x1330
<= -0
c2592:
-10000 x379
+1 x931
<= -0
c2593:
-10000 x379
-1 x931
<= -0
c2594:
+10000 x379
-13 x655
+1 x931
-1 x1023
<= +10000
c2595:
-10000 x379
-13 x655
+1 x931
-1 x1023
>= -10000
c2596:
-20 x380
+1 x1331
<= -0
c2597:
+1 x380
-1 x1331
<= -0
c2598:
-10000 x380
+1 x932
<= -0
c2599:
-10000 x380
-1 x932
<= -0
c2600:
+10000 x380
-12 x656
+1 x932
-1 x1023
<= +10000
c2601:
-10000 x380
-12 x656
+1 x932
-1 x1023
>= -10000
c2602:
-20 x381
+1 x1332
<= -0
c2603:
+1 x381
-1 x1332
<= -0
c2604:
-10000 x381
+1 x933
<= -0
c2605:
-10000 x381
-1 x933
<= -0
c2606:
+10000 x381
-7 x657
+1 x933
-1 x1023
<= +10000
c2607:
-10000 x381
-7 x657
+1 x933
-1 x1023
>= -10000
c2608:
-20 x382
+1 x1333
<= -0
c2609:
+1 x382
-1 x1333
<= -0
c2610:
-10000 x382
+1 x934
<= -0
c2611:
-10000 x382
-1 x934
<= -0
c2612:
+10000 x382
-6 x658
+1 x934
-1 x1060
<= +10000
c2613:
-10000 x382
-6 x658
+1 x934
-1 x1060
>= -10000
c2614:
-20 x383
+1 x1334
<= -0
c2615:
+1 x383
-1 x1334
<= -0
c2616:
-10000 x383
+1 x935
<= -0
c2617:
-10000 x383
-1 x935
<= -0
c2618:
+10000 x383
-3 x659
+1 x935
-1 x1063
<= +10000
c2619:
-10000 x383
-3 x659
+1 x935
-1 x1063
>= -10000
c2620:
-20 x384
+1 x1335
<= -0
c2621:
+1 x384
-1 x1335
<= -0
c2622:
-10000 x384
+1 x936
<= -0
c2623:
-10000 x384
-1 x936
<= -0
c2624:
+10000 x384
-6 x660
+1 x936
-1 x1060
<= +10000
c2625:
-10000 x384
-6 x660
+1 x936
-1 x1060
>= -10000
c2626:
-20 x385
+1 x1336
<= -0
c2627:
+1 x385
-1 x1336
<= -0
c2628:
-10000 x385
+1 x937
<= -0
c2629:
-10000 x385
-1 x937
<= -0
c2630:
+10000 x385
-12 x661
+1 x937
-1 x1028
<= +10000
c2631:
-10000 x385
-12 x661
+1 x937
-1 x1028
>= -10000
c2632:
-20 x386
+1 x1337
<= -0
c2633:
+1 x386
-1 x1337
<= -0
c2634:
-10000 x386
+1 x938
<= -0
c2635:
-10000 x386
-1 x938
<= -0
c2636:
+10000 x386
-10 x662
+1 x938
-1 x1028
<= +10000
c2637:
-10000 x386
-10 x662
+1 x938
-1 x1028
>= -10000
c2638:
-20 x387
+1 x1338
<= -0
c2639:
+1 x387
-1 x1338
<= -0
c2640:
-10000 x387
+1 x939
<= -0
c2641:
-10000 x387
-1 x939
<= -0
c2642:
+10000 x387
-11 x663
+1 x939
-1 x1063
<= +10000
c2643:
-10000 x387
-11 x663
+1 x939
-1 x1063
>= -10000
c2644:
-20 x388
+1 x1339
<= -0
c2645:
+1 x388
-1 x1339
<= -0
c2646:
-10000 x388
+1 x940
<= -0
c2647:
-10000 x388
-1 x940
<= -0
c2648:
+10000 x388
-18 x664
+1 x940
-1 x1028
<= +10000
c2649:
-10000 x388
-18 x664
+1 x940
-1 x1028
>= -10000
c2650:
-20 x389
+1 x1340
<= -0
c2651:
+1 x389
-1 x1340
<= -0
c2652:
-10000 x389
+1 x941
<= -0
c2653:
-10000 x389
-1 x941
<= -0
c2654:
+10000 x389
-23 x665
+1 x941
-1 x1025
<= +10000
c2655:
-10000 x389
-23 x665
+1 x941
-1 x1025
>= -10000
c2656:
-20 x390
+1 x1341
<= -0
c2657:
+1 x390
-1 x1341
<= -0
c2658:
-10000 x390
+1 x942
<= -0
c2659:
-10000 x390
-1 x942
<= -0
c2660:
+10000 x390
-14 x666
+1 x942
-1 x1025
<= +10000
c2661:
-10000 x390
-14 x666
+1 x942
-1 x1025
>= -10000
c2662:
-20 x391
+1 x1342
<= -0
c2663:
+1 x391
-1 x1342
<= -0
c2664:
-10000 x391
+1 x943
<= -0
c2665:
-10000 x391
-1 x943
<= -0
c2666:
+10000 x391
-16 x667
+1 x943
-1 x1049
<= +10000
c2667:
-10000 x391
-16 x667
+1 x943
-1 x1049
>= -10000
c2668:
-20 x392
+1 x1343
<= -0
c2669:
+1 x392
-1 x1343
<= -0
c2670:
-10000 x392
+1 x944
<= -0
c2671:
-10000 x392
-1 x944
<= -0
c2672:
+10000 x392
-16 x668
+1 x944
-1 x1019
<= +10000
c2673:
-10000 x392
-16 x668
+1 x944
-1 x1019
>= -10000
c2674:
-20 x393
+1 x1344
<= -0
c2675:
+1 x393
-1 x1344
<= -0
c2676:
-10000 x393
+1 x945
<= -0
c2677:
-10000 x393
-1 x945
<= -0
c2678:
+10000 x393
-6 x669
+1 x945
-1 x1049
<= +10000
c2679:
-10000 x393
-6 x669
+1 x945
-1 x1049
>= -10000
c2680:
-20 x394
+1 x1345
<= -0
c2681:
+1 x394
-1 x1345
<= -0
c2682:
-10000 x394
+1 x946
<= -0
c2683:
-10000 x394
-1 x946
<= -0
c2684:
+10000 x394
-9 x670
+1 x946
-1 x1039
<= +10000
c2685:
-10000 x394
-9 x670
+1 x946
-1 x1039
>= -10000
c2686:
-20 x395
+1 x1346
<= -0
c2687:
+1 x395
-1 x1346
<= -0
c2688:
-10000 x395
+1 x947
<= -0
c2689:
-10000 x395
-1 x947
<= -0
c2690:
+10000 x395
-18 x671
+1 x947
-1 x1041
<= +10000
c2691:
-10000 x395
-18 x671
+1 x947
-1 x1041
>= -10000
c2692:
-20 x396
+1 x1347
<= -0
c2693:
+1 x396
-1 x1347
<= -0
c2694:
-10000 x396
+1 x948
<= -0
c2695:
-10000 x396
-1 x948
<= -0
c2696:
+10000 x396
-13 x672
+1 x948
-1 x1019
<= +10000
c2697:
-10000 x396
-13 x672
+1 x948
-1 x1019
>= -10000
c2698:
-20 x397
+1 x1348
<= -0
c2699:
+1 x397
-1 x1348
<= -0
c2700:
-10000 x397
+1 x949
<= -0
c2701:
-10000 x397
-1 x949
<= -0
c2702:
+10000 x397
-19 x673
+1 x949
-1 x1041
<= +10000
c2703:
-10000 x397
-19 x673
+1 x949
-1 x1041
>= -10000
c2704:
-20 x398
+1 x1349
<= -0
c2705:
+1 x398
-1 x1349
<= -0
c2706:
-10000 x398
+1 x950
<= -0
c2707:
-10000 x398
-1 x950
<= -0
c2708:
+10000 x398
-14 x674
+1 x950
-1 x1054
<= +10000
c2709:
-10000 x398
-14 x674
+1 x950
-1 x1054
>= -10000
c2710:
-20 x399
+1 x1350
<= -0
c2711:
+1 x399
-1 x1350
<= -0
c2712:
-10000 x399
+1 x951
<= -0
c2713:
-10000 x399
-1 x951
<= -0
c2714:
+10000 x399
-8 x675
+1 x951
-1 x1054
<= +10000
c2715:
-10000 x399
-8 x675
+1 x951
-1 x1054
>= -10000
c2716:
-20 x400
+1 x1351
<= -0
c2717:
+1 x400
-1 x1351
<= -0
c2718:
-10000 x400
+1 x952
<= -0
c2719:
-10000 x400
-1 x952
<= -0
c2720:
+10000 x400
-9 x676
+1 x952
-1 x1030
<= +10000
c2721:
-10000 x400
-9 x676
+1 x952
-1 x1030
>= -10000
c2722:
-20 x401
+1 x1352
<= -0
c2723:
+1 x401
-1 x1352
<= -0
c2724:
-10000 x401
+1 x953
<= -0
c2725:
-10000 x401
-1 x953
<= -0
c2726:
+10000 x401
-14 x677
+1 x953
-1 x1018
<= +10000
c2727:
-10000 x401
-14 x677
+1 x953
-1 x1018
>= -10000
c2728:
-20 x402
+1 x1353
<= -0
c2729:
+1 x402
-1 x1353
<= -0
c2730:
-10000 x402
+1 x954
<= -0
c2731:
-10000 x402
-1 x954
<= -0
c2732:
+10000 x402
-9 x678
+1 x954
-1 x1018
<= +10000
c2733:
-10000 x402
-9 x678
+1 x954
-1 x1018
>= -10000
c2734:
-20 x403
+1 x1354
<= -0
c2735:
+1 x403
-1 x1354
<= -0
c2736:
-10000 x403
+1 x955
<= -0
c2737:
-10000 x403
-1 x955
<= -0
c2738:
+10000 x403
-11 x679
+1 x955
-1 x1054
<= +10000
c2739:
-10000 x403
-11 x679
+1 x955
-1 x1054
>= -10000
c2740:
-20 x404
+1 x1355
<= -0
c2741:
+1 x404
-1 x1355
<= -0
c2742:
-10000 x404
+1 x956
<= -0
c2743:
-10000 x404
-1 x956
<= -0
c2744:
+10000 x404
-24 x680
+1 x956
-1 x1054
<= +10000
c2745:
-10000 x404
-24 x680
+1 x956
-1 x1054
>= -10000
c2746:
-20 x405
+1 x1356
<= -0
c2747:
+1 x405
-1 x1356
<= -0
c2748:
-10000 x405
+1 x957
<= -0
c2749:
-10000 x405
-1 x957
<= -0
c2750:
+10000 x405
-21 x681
+1 x957
-1 x1046
<= +10000
c2751:
-10000 x405
-21 x681
+1 x957
-1 x1046
>= -10000
c2752:
-20 x406
+1 x1357
<= -0
c2753:
+1 x406
-1 x1357
<= -0
c2754:
-10000 x406
+1 x958
<= -0
c2755:
-10000 x406
-1 x958
<= -0
c2756:
+10000 x406
-24 x682
+1 x958
-1 x1019
<= +10000
c2757:
-10000 x406
-24 x682
+1 x958
-1 x1019
>= -10000
c2758:
-20 x407
+1 x1358
<= -0
c2759:
+1 x407
-1 x1358
<= -0
c2760:
-10000 x407
+1 x959
<= -0
c2761:
-10000 x407
-1 x959
<= -0
c2762:
+10000 x407
-15 x683
+1 x959
-1 x1062
<= +10000
c2763:
-10000 x407
-15 x683
+1 x959
-1 x1062
>= -10000
c2764:
-20 x408
+1 x1359
<= -0
c2765:
+1 x408
-1 x1359
<= -0
c2766:
-10000 x408
+1 x960
<= -0
c2767:
-10000 x408
-1 x960
<= -0
c2768:
+10000 x408
-5 x684
+1 x960
-1 x1062
<= +10000
c2769:
-10000 x408
-5 x684
+1 x960
-1 x1062
>= -10000
c2770:
-20 x409
+1 x1360
<= -0
c2771:
+1 x409
-1 x1360
<= -0
c2772:
-10000 x409
+1 x961
<= -0
c2773:
-10000 x409
-1 x961
<= -0
c2774:
+10000 x409
-10 x685
+1 x961
-1 x1053
<= +10000
c2775:
-10000 x409
-10 x685
+1 x961
-1 x1053
>= -10000
c2776:
-20 x410
+1 x1361
<= -0
c2777:
+1 x410
-1 x1361
<= -0
c2778:
-10000 x410
+1 x962
<= -0
c2779:
-10000 x410
-1 x962
<= -0
c2780:
+10000 x410
-18 x686
+1 x962
-1 x1053
<= +10000
c2781:
-10000 x410
-18 x686
+1 x962
-1 x1053
>= -10000
c2782:
-20 x411
+1 x1362
<= -0
c2783:
+1 x411
-1 x1362
<= -0
c2784:
-10000 x411
+1 x963
<= -0
c2785:
-10000 x411
-1 x963
<= -0
c2786:
+10000 x411
-19 x687
+1 x963
-1 x1029
<= +10000
c2787:
-10000 x411
-19 x687
+1 x963
-1 x1029
>= -10000
c2788:
-20 x412
+1 x1363
<= -0
c2789:
+1 x412
-1 x1363
<= -0
c2790:
-10000 x412
+1 x964
<= -0
c2791:
-10000 x412
-1 x964
<= -0
c2792:
+10000 x412
-11 x688
+1 x964
-1 x1023
<= +10000
c2793:
-10000 x412
-11 x688
+1 x964
-1 x1023
>= -10000
c2794:
-20 x413
+1 x1364
<= -0
c2795:
+1 x413
-1 x1364
<= -0
c2796:
-10000 x413
+1 x965
<= -0
c2797:
-10000 x413
-1 x965
<= -0
c2798:
+10000 x413
-10 x689
+1 x965
-1 x1063
<= +10000
c2799:
-10000 x413
-10 x689
+1 x965
-1 x1063
>= -10000
c2800:
-1 x1173
-1 x1174
-1 x1175
+1 x1215
+1 x1216
+1 x1218
+1 x1311
+1 x1312
+1 x1313
-1 x1353
-1 x1354
-1 x1356
<= +51
c2801:
-1 x1068
+1 x1212
+1 x1213
-1 x1214
-1 x1215
-1 x1350
-1 x1351
+1 x1352
+1 x1353
= -0
c2802:
-1 x1069
-1 x1205
+1 x1206
+1 x1207
+1 x1208
-1 x1209
-1 x1219
+1 x1343
-1 x1344
-1 x1345
-1 x1346
+1 x1347
+1 x1357
= -0
c2803:
-1 x1070
+1 x1089
-1 x1090
+1 x1107
-1 x1109
-1 x1227
+1 x1228
-1 x1245
+1 x1247
= -0
c2804:
-1 x1071
-1 x1137
+1 x1138
+1 x1139
-1 x1191
+1 x1193
+1 x1275
-1 x1276
-1 x1277
+1 x1329
-1 x1331
= -0
c2805:
-1 x1072
+1 x1185
-1 x1186
-1 x1187
+1 x1188
-1 x1323
+1 x1324
+1 x1325
-1 x1326
= -0
c2806:
-1 x1073
-1 x1192
-1 x1193
-1 x1194
+1 x1195
+1 x1196
-1 x1225
+1 x1330
+1 x1331
+1 x1332
-1 x1333
-1 x1334
+1 x1363
= -0
c2807:
-1 x1074
+1 x1167
-1 x1168
-1 x1169
+1 x1173
+1 x1214
-1 x1305
+1 x1306
+1 x1307
-1 x1311
-1 x1352
= -0
c2808:
-1 x1075
+1 x1151
+1 x1152
+1 x1153
-1 x1154
-1 x1202
-1 x1203
-1 x1289
-1 x1290
-1 x1291
+1 x1292
+1 x1340
+1 x1341
= -0
c2809:
-1 x1076
-1 x1099
+1 x1100
-1 x1101
-1 x1153
-1 x1155
-1 x1157
+1 x1237
-1 x1238
+1 x1239
+1 x1291
+1 x1293
+1 x1295
= -0
c2810:
-1 x1077
-1 x1129
-1 x1130
+1 x1131
-1 x1181
-1 x1182
+1 x1184
+1 x1186
+1 x1267
+1 x1268
-1 x1269
+1 x1319
+1 x1320
-1 x1322
-1 x1324
= -0
c2811:
-1 x1078
+1 x1146
+1 x1147
+1 x1148
-1 x1198
-1 x1199
-1 x1201
+1 x1203
-1 x1284
-1 x1285
-1 x1286
+1 x1336
+1 x1337
+1 x1339
-1 x1341
= -0
c2812:
-1 x1079
-1 x1188
-1 x1189
-1 x1190
+1 x1191
+1 x1192
+1 x1223
-1 x1224
+1 x1326
+1 x1327
+1 x1328
-1 x1329
-1 x1330
-1 x1361
+1 x1362
= -0
c2813:
-1 x1080
+1 x1164
+1 x1165
-1 x1166
-1 x1167
+1 x1211
-1 x1213
-1 x1302
-1 x1303
+1 x1304
+1 x1305
-1 x1349
+1 x1351
= -0
c2814:
-1 x1081
-1 x1148
-1 x1149
+1 x1150
-1 x1151
+1 x1286
+1 x1287
-1 x1288
+1 x1289
= -0
c2815:
-1 x1082
-1 x1093
+1 x1094
+1 x1125
+1 x1127
+1 x1231
-1 x1232
-1 x1263
-1 x1265
= -0
c2816:
-1 x1083
+1 x1123
-1 x1124
-1 x1125
+1 x1126
+1 x1179
-1 x1261
+1 x1262
+1 x1263
-1 x1264
-1 x1317
= -0
c2817:
-1 x1084
+1 x1091
-1 x1092
+1 x1115
+1 x1117
+1 x1119
-1 x1229
+1 x1230
-1 x1253
-1 x1255
-1 x1257
= -0
c2818:
-1 x1085
-1 x1143
-1 x1144
+1 x1145
-1 x1146
+1 x1281
+1 x1282
-1 x1283
+1 x1284
= -0
c2819:
-1 x1086
+1 x1103
+1 x1104
-1 x1105
+1 x1161
-1 x1163
-1 x1241
-1 x1242
+1 x1243
-1 x1299
+1 x1301
= -0
c2820:
-1 x1087
-1 x1097
+1 x1098
-1 x1145
-1 x1147
+1 x1149
+1 x1235
-1 x1236
+1 x1283
+1 x1285
-1 x1287
= -0
c2821:
-1 x1089
-1 x1100
-1 x1102
-1 x1104
-1 x1106
+1 x1227
+1 x1238
+1 x1240
+1 x1242
+1 x1244
= -0
c2822:
-1 x1156
+1 x1157
+1 x1158
-1 x1159
-1 x1207
+1 x1294
-1 x1295
-1 x1296
+1 x1297
+1 x1345
= -0
c2823:
+1 x1090
-1 x1091
+1 x1110
-1 x1112
-1 x1114
-1 x1228
+1 x1229
-1 x1248
+1 x1250
+1 x1252
= -0
c2824:
+1 x1159
+1 x1160
-1 x1161
-1 x1162
-1 x1164
-1 x1208
-1 x1210
-1 x1297
-1 x1298
+1 x1299
+1 x1300
+1 x1302
+1 x1346
+1 x1348
= -0
c2825:
+1 x1116
-1 x1117
-1 x1118
+1 x1172
-1 x1254
+1 x1255
+1 x1256
-1 x1310
= -0
c2826:
-1 x1096
+1 x1097
-1 x1136
-1 x1138
-1 x1140
+1 x1142
+1 x1144
+1 x1234
-1 x1235
+1 x1274
+1 x1276
+1 x1278
-1 x1280
-1 x1282
= -0
c2827:
-1 x1126
-1 x1127
-1 x1128
+1 x1129
+1 x1180
+1 x1264
+1 x1265
+1 x1266
-1 x1267
-1 x1318
= -0
c2828:
-1 x1098
+1 x1099
-1 x1150
-1 x1152
+1 x1236
-1 x1237
+1 x1288
+1 x1290
= -0
c2829:
-1 x1183
-1 x1184
-1 x1185
+1 x1217
-1 x1218
+1 x1219
+1 x1220
+1 x1222
+1 x1224
+1 x1321
+1 x1322
+1 x1323
-1 x1355
+1 x1356
-1 x1357
-1 x1358
-1 x1360
-1 x1362
= -0
c2830:
-1 x1131
-1 x1132
-1 x1133
+1 x1134
+1 x1187
+1 x1189
+1 x1269
+1 x1270
+1 x1271
-1 x1272
-1 x1325
-1 x1327
= -0
c2831:
+1 x1177
-1 x1178
-1 x1179
-1 x1180
+1 x1181
-1 x1315
+1 x1316
+1 x1317
+1 x1318
-1 x1319
= -0
c2832:
+1 x1154
+1 x1155
+1 x1156
-1 x1204
-1 x1206
-1 x1292
-1 x1293
-1 x1294
+1 x1342
+1 x1344
= -0
c2833:
-1 x1134
-1 x1135
+1 x1136
+1 x1137
+1 x1190
+1 x1272
+1 x1273
-1 x1274
-1 x1275
-1 x1328
= -0
c2834:
+1 x1108
+1 x1109
-1 x1110
-1 x1111
+1 x1162
+1 x1163
-1 x1165
-1 x1246
-1 x1247
+1 x1248
+1 x1249
-1 x1300
-1 x1301
+1 x1303
= -0
c2835:
+1 x1092
+1 x1093
+1 x1120
+1 x1122
+1 x1124
-1 x1230
-1 x1231
-1 x1258
-1 x1260
-1 x1262
= -0
c2836:
+1 x1221
-1 x1222
-1 x1223
+1 x1225
+1 x1226
-1 x1359
+1 x1360
+1 x1361
-1 x1363
-1 x1364
= -0
c2837:
+1 x1209
+1 x1210
-1 x1211
-1 x1212
-1 x1216
-1 x1217
-1 x1347
-1 x1348
+1 x1349
+1 x1350
+1 x1354
+1 x1355
= -0
c2838:
-1 x1139
+1 x1140
+1 x1141
+1 x1194
+1 x1277
-1 x1278
-1 x1279
-1 x1332
= -0
c2839:
+1 x1101
+1 x1102
-1 x1103
-1 x1158
-1 x1160
-1 x1239
-1 x1240
+1 x1241
+1 x1296
+1 x1298
= -0
c2840:
+1 x1105
+1 x1106
-1 x1107
-1 x1108
-1 x1243
-1 x1244
+1 x1245
+1 x1246
= -0
c2841:
+1 x1175
-1 x1176
-1 x1177
+1 x1182
+1 x1183
-1 x1313
+1 x1314
+1 x1315
-1 x1320
-1 x1321
= -0
c2842:
+1 x1111
+1 x1112
-1 x1113
+1 x1166
+1 x1168
-1 x1170
-1 x1249
-1 x1250
+1 x1251
-1 x1304
-1 x1306
+1 x1308
= -0
c2843:
-1 x1141
-1 x1142
+1 x1143
-1 x1195
-1 x1197
+1 x1199
+1 x1279
+1 x1280
-1 x1281
+1 x1333
+1 x1335
-1 x1337
= -0
c2844:
+1 x1118
-1 x1119
-1 x1120
+1 x1121
-1 x1256
+1 x1257
+1 x1258
-1 x1259
= -0
c2845:
+1 x1200
+1 x1201
+1 x1202
+1 x1204
+1 x1205
-1 x1220
-1 x1221
-1 x1338
-1 x1339
-1 x1340
-1 x1342
-1 x1343
+1 x1358
+1 x1359
= -0
c2846:
-1 x1196
+1 x1197
+1 x1198
-1 x1200
-1 x1226
+1 x1334
-1 x1335
-1 x1336
+1 x1338
+1 x1364
= -0
c2847:
-1 x1121
-1 x1122
-1 x1123
+1 x1169
+1 x1170
+1 x1171
-1 x1172
+1 x1174
+1 x1176
+1 x1178
+1 x1259
+1 x1260
+1 x1261
-1 x1307
-1 x1308
-1 x1309
+1 x1310
-1 x1312
-1 x1314
-1 x1316
= -0
c2848:
-1 x1094
+1 x1095
+1 x1128
+1 x1130
+1 x1132
+1 x1232
-1 x1233
-1 x1266
-1 x1268
-1 x1270
= -0
c2849:
+1 x1113
+1 x1114
-1 x1115
-1 x1116
-1 x1171
-1 x1251
-1 x1252
+1 x1253
+1 x1254
+1 x1309
= -0
c2850:
-1 x1095
+1 x1096
+1 x1133
+1 x1135
+1 x1233
-1 x1234
-1 x1271
-1 x1273
= -0


bounds

-80 <= x414 <= +80
-80 <= x415 <= +80
-80 <= x416 <= +80
-80 <= x417 <= +80
-80 <= x418 <= +80
-80 <= x419 <= +80
-80 <= x420 <= +80
-80 <= x421 <= +80
-80 <= x422 <= +80
-80 <= x423 <= +80
-80 <= x424 <= +80
-80 <= x425 <= +80
-80 <= x426 <= +80
-80 <= x427 <= +80
-80 <= x428 <= +80
-80 <= x429 <= +80
-80 <= x430 <= +80
-80 <= x431 <= +80
-80 <= x432 <= +80
-80 <= x433 <= +80
-80 <= x434 <= +80
-80 <= x435 <= +80
-80 <= x436 <= +80
-80 <= x437 <= +80
-80 <= x438 <= +80
-80 <= x439 <= +80
-80 <= x440 <= +80
-80 <= x441 <= +80
-80 <= x442 <= +80
-80 <= x443 <= +80
-80 <= x444 <= +80
-80 <= x445 <= +80
-80 <= x446 <= +80
-80 <= x447 <= +80
-80 <= x448 <= +80
-80 <= x449 <= +80
-80 <= x450 <= +80
-80 <= x451 <= +80
-80 <= x452 <= +80
-80 <= x453 <= +80
-80 <= x454 <= +80
-80 <= x455 <= +80
-80 <= x456 <= +80
-80 <= x457 <= +80
-80 <= x458 <= +80
-80 <= x459 <= +80
-80 <= x460 <= +80
-80 <= x461 <= +80
-80 <= x462 <= +80
-80 <= x463 <= +80
-80 <= x464 <= +80
-80 <= x465 <= +80
-80 <= x466 <= +80
-80 <= x467 <= +80
-80 <= x468 <= +80
-80 <= x469 <= +80
-80 <= x470 <= +80
-80 <= x471 <= +80
-80 <= x472 <= +80
-80 <= x473 <= +80
-80 <= x474 <= +80
-80 <= x475 <= +80
-80 <= x476 <= +80
-80 <= x477 <= +80
-80 <= x478 <= +80
-80 <= x479 <= +80
-80 <= x480 <= +80
-80 <= x481 <= +80
-80 <= x482 <= +80
-80 <= x483 <= +80
-80 <= x484 <= +80
-80 <= x485 <= +80
-80 <= x486 <= +80
-80 <= x487 <= +80
-80 <= x488 <= +80
-80 <= x489 <= +80
-80 <= x490 <= +80
-80 <= x491 <= +80
-80 <= x492 <= +80
-80 <= x493 <= +80
-80 <= x494 <= +80
-80 <= x495 <= +80
-80 <= x496 <= +80
-80 <= x497 <= +80
-80 <= x498 <= +80
-80 <= x499 <= +80
-80 <= x500 <= +80
-80 <= x501 <= +80
-80 <= x502 <= +80
-80 <= x503 <= +80
-80 <= x504 <= +80
-80 <= x505 <= +80
-80 <= x506 <= +80
-80 <= x507 <= +80
-80 <= x508 <= +80
-80 <= x509 <= +80
-80 <= x510 <= +80
-80 <= x511 <= +80
-80 <= x512 <= +80
-80 <= x513 <= +80
-80 <= x514 <= +80
-80 <= x515 <= +80
-80 <= x516 <= +80
-80 <= x517 <= +80
-80 <= x518 <= +80
-80 <= x519 <= +80
-80 <= x520 <= +80
-80 <= x521 <= +80
-80 <= x522 <= +80
-80 <= x523 <= +80
-80 <= x524 <= +80
-80 <= x525 <= +80
-80 <= x526 <= +80
-80 <= x527 <= +80
-80 <= x528 <= +80
-80 <= x529 <= +80
-80 <= x530 <= +80
-80 <= x531 <= +80
-80 <= x532 <= +80
-80 <= x533 <= +80
-80 <= x534 <= +80
-80 <= x535 <= +80
-80 <= x536 <= +80
-80 <= x537 <= +80
-80 <= x538 <= +80
-80 <= x539 <= +80
-80 <= x540 <= +80
-80 <= x541 <= +80
-80 <= x542 <= +80
-80 <= x543 <= +80
-80 <= x544 <= +80
-80 <= x545 <= +80
-80 <= x546 <= +80
-80 <= x547 <= +80
-80 <= x548 <= +80
-80 <= x549 <= +80
-80 <= x550 <= +80
-80 <= x551 <= +80
-80 <= x552 <= +80
-80 <= x553 <= +80
-80 <= x554 <= +80
-80 <= x555 <= +80
-80 <= x556 <= +80
-80 <= x557 <= +80
-80 <= x558 <= +80
-80 <= x559 <= +80
-80 <= x560 <= +80
-80 <= x561 <= +80
-80 <= x562 <= +80
-80 <= x563 <= +80
-80 <= x564 <= +80
-80 <= x565 <= +80
-80 <= x566 <= +80
-80 <= x567 <= +80
-80 <= x568 <= +80
-80 <= x569 <= +80
-80 <= x570 <= +80
-80 <= x571 <= +80
-80 <= x572 <= +80
-80 <= x573 <= +80
-80 <= x574 <= +80
-80 <= x575 <= +80
-80 <= x576 <= +80
-80 <= x577 <= +80
-80 <= x578 <= +80
-80 <= x579 <= +80
-80 <= x580 <= +80
-80 <= x581 <= +80
-80 <= x582 <= +80
-80 <= x583 <= +80
-80 <= x584 <= +80
-80 <= x585 <= +80
-80 <= x586 <= +80
-80 <= x587 <= +80
-80 <= x588 <= +80
-80 <= x589 <= +80
-80 <= x590 <= +80
-80 <= x591 <= +80
-80 <= x592 <= +80
-80 <= x593 <= +80
-80 <= x594 <= +80
-80 <= x595 <= +80
-80 <= x596 <= +80
-80 <= x597 <= +80
-80 <= x598 <= +80
-80 <= x599 <= +80
-80 <= x600 <= +80
-80 <= x601 <= +80
-80 <= x602 <= +80
-80 <= x603 <= +80
-80 <= x604 <= +80
-80 <= x605 <= +80
-80 <= x606 <= +80
-80 <= x607 <= +80
-80 <= x608 <= +80
-80 <= x609 <= +80
-80 <= x610 <= +80
-80 <= x611 <= +80
-80 <= x612 <= +80
-80 <= x613 <= +80
-80 <= x614 <= +80
-80 <= x615 <= +80
-80 <= x616 <= +80
-80 <= x617 <= +80
-80 <= x618 <= +80
-80 <= x619 <= +80
-80 <= x620 <= +80
-80 <= x621 <= +80
-80 <= x622 <= +80
-80 <= x623 <= +80
-80 <= x624 <= +80
-80 <= x625 <= +80
-80 <= x626 <= +80
-80 <= x627 <= +80
-80 <= x628 <= +80
-80 <= x629 <= +80
-80 <= x630 <= +80
-80 <= x631 <= +80
-80 <= x632 <= +80
-80 <= x633 <= +80
-80 <= x634 <= +80
-80 <= x635 <= +80
-80 <= x636 <= +80
-80 <= x637 <= +80
-80 <= x638 <= +80
-80 <= x639 <= +80
-80 <= x640 <= +80
-80 <= x641 <= +80
-80 <= x642 <= +80
-80 <= x643 <= +80
-80 <= x644 <= +80
-80 <= x645 <= +80
-80 <= x646 <= +80
-80 <= x647 <= +80
-80 <= x648 <= +80
-80 <= x649 <= +80
-80 <= x650 <= +80
-80 <= x651 <= +80
-80 <= x652 <= +80
-80 <= x653 <= +80
-80 <= x654 <= +80
-80 <= x655 <= +80
-80 <= x656 <= +80
-80 <= x657 <= +80
-80 <= x658 <= +80
-80 <= x659 <= +80
-80 <= x660 <= +80
-80 <= x661 <= +80
-80 <= x662 <= +80
-80 <= x663 <= +80
-80 <= x664 <= +80
-80 <= x665 <= +80
-80 <= x666 <= +80
-80 <= x667 <= +80
-80 <= x668 <= +80
-80 <= x669 <= +80
-80 <= x670 <= +80
-80 <= x671 <= +80
-80 <= x672 <= +80
-80 <= x673 <= +80
-80 <= x674 <= +80
-80 <= x675 <= +80
-80 <= x676 <= +80
-80 <= x677 <= +80
-80 <= x678 <= +80
-80 <= x679 <= +80
-80 <= x680 <= +80
-80 <= x681 <= +80
-80 <= x682 <= +80
-80 <= x683 <= +80
-80 <= x684 <= +80
-80 <= x685 <= +80
-80 <= x686 <= +80
-80 <= x687 <= +80
-80 <= x688 <= +80
-80 <= x689 <= +80
-10000 <= x690 <= +10000
-10000 <= x691 <= +10000
-10000 <= x692 <= +10000
-10000 <= x693 <= +10000
-10000 <= x694 <= +10000
-10000 <= x695 <= +10000
-10000 <= x696 <= +10000
-10000 <= x697 <= +10000
-10000 <= x698 <= +10000
-10000 <= x699 <= +10000
-10000 <= x700 <= +10000
-10000 <= x701 <= +10000
-10000 <= x702 <= +10000
-10000 <= x703 <= +10000
-10000 <= x704 <= +10000
-10000 <= x705 <= +10000
-10000 <= x706 <= +10000
-10000 <= x707 <= +10000
-10000 <= x708 <= +10000
-10000 <= x709 <= +10000
-10000 <= x710 <= +10000
-10000 <= x711 <= +10000
-10000 <= x712 <= +10000
-10000 <= x713 <= +10000
-10000 <= x714 <= +10000
-10000 <= x715 <= +10000
-10000 <= x716 <= +10000
-10000 <= x717 <= +10000
-10000 <= x718 <= +10000
-10000 <= x719 <= +10000
-10000 <= x720 <= +10000
-10000 <= x721 <= +10000
-10000 <= x722 <= +10000
-10000 <= x723 <= +10000
-10000 <= x724 <= +10000
-10000 <= x725 <= +10000
-10000 <= x726 <= +10000
-10000 <= x727 <= +10000
-10000 <= x728 <= +10000
-10000 <= x729 <= +10000
-10000 <= x730 <= +10000
-10000 <= x731 <= +10000
-10000 <= x732 <= +10000
-10000 <= x733 <= +10000
-10000 <= x734 <= +10000
-10000 <= x735 <= +10000
-10000 <= x736 <= +10000
-10000 <= x737 <= +10000
-10000 <= x738 <= +10000
-10000 <= x739 <= +10000
-10000 <= x740 <= +10000
-10000 <= x741 <= +10000
-10000 <= x742 <= +10000
-10000 <= x743 <= +10000
-10000 <= x744 <= +10000
-10000 <= x745 <= +10000
-10000 <= x746 <= +10000
-10000 <= x747 <= +10000
-10000 <= x748 <= +10000
-10000 <= x749 <= +10000
-10000 <= x750 <= +10000
-10000 <= x751 <= +10000
-10000 <= x752 <= +10000
-10000 <= x753 <= +10000
-10000 <= x754 <= +10000
-10000 <= x755 <= +10000
-10000 <= x756 <= +10000
-10000 <= x757 <= +10000
-10000 <= x758 <= +10000
-10000 <= x759 <= +10000
-10000 <= x760 <= +10000
-10000 <= x761 <= +10000
-10000 <= x762 <= +10000
-10000 <= x763 <= +10000
-10000 <= x764 <= +10000
-10000 <= x765 <= +10000
-10000 <= x766 <= +10000
-10000 <= x767 <= +10000
-10000 <= x768 <= +10000
-10000 <= x769 <= +10000
-10000 <= x770 <= +10000
-10000 <= x771 <= +10000
-10000 <= x772 <= +10000
-10000 <= x773 <= +10000
-10000 <= x774 <= +10000
-10000 <= x775 <= +10000
-10000 <= x776 <= +10000
-10000 <= x777 <= +10000
-10000 <= x778 <= +10000
-10000 <= x779 <= +10000
-10000 <= x780 <= +10000
-10000 <= x781 <= +10000
-10000 <= x782 <= +10000
-10000 <= x783 <= +10000
-10000 <= x784 <= +10000
-10000 <= x785 <= +10000
-10000 <= x786 <= +10000
-10000 <= x787 <= +10000
-10000 <= x788 <= +10000
-10000 <= x789 <= +10000
-10000 <= x790 <= +10000
-10000 <= x791 <= +10000
-10000 <= x792 <= +10000
-10000 <= x793 <= +10000
-10000 <= x794 <= +10000
-10000 <= x795 <= +10000
-10000 <= x796 <= +10000
-10000 <= x797 <= +10000
-10000 <= x798 <= +10000
-10000 <= x799 <= +10000
-10000 <= x800 <= +10000
-10000 <= x801 <= +10000
-10000 <= x802 <= +10000
-10000 <= x803 <= +10000
-10000 <= x804 <= +10000
-10000 <= x805 <= +10000
-10000 <= x806 <= +10000
-10000 <= x807 <= +10000
-10000 <= x808 <= +10000
-10000 <= x809 <= +10000
-10000 <= x810 <= +10000
-10000 <= x811 <= +10000
-10000 <= x812 <= +10000
-10000 <= x813 <= +10000
-10000 <= x814 <= +10000
-10000 <= x815 <= +10000
-10000 <= x816 <= +10000
-10000 <= x817 <= +10000
-10000 <= x818 <= +10000
-10000 <= x819 <= +10000
-10000 <= x820 <= +10000
-10000 <= x821 <= +10000
-10000 <= x822 <= +10000
-10000 <= x823 <= +10000
-10000 <= x824 <= +10000
-10000 <= x825 <= +10000
-10000 <= x826 <= +10000
-10000 <= x827 <= +10000
-10000 <= x828 <= +10000
-10000 <= x829 <= +10000
-10000 <= x830 <= +10000
-10000 <= x831 <= +10000
-10000 <= x832 <= +10000
-10000 <= x833 <= +10000
-10000 <= x834 <= +10000
-10000 <= x835 <= +10000
-10000 <= x836 <= +10000
-10000 <= x837 <= +10000
-10000 <= x838 <= +10000
-10000 <= x839 <= +10000
-10000 <= x840 <= +10000
-10000 <= x841 <= +10000
-10000 <= x842 <= +10000
-10000 <= x843 <= +10000
-10000 <= x844 <= +10000
-10000 <= x845 <= +10000
-10000 <= x846 <= +10000
-10000 <= x847 <= +10000
-10000 <= x848 <= +10000
-10000 <= x849 <= +10000
-10000 <= x850 <= +10000
-10000 <= x851 <= +10000
-10000 <= x852 <= +10000
-10000 <= x853 <= +10000
-10000 <= x854 <= +10000
-10000 <= x855 <= +10000
-10000 <= x856 <= +10000
-10000 <= x857 <= +10000
-10000 <= x858 <= +10000
-10000 <= x859 <= +10000
-10000 <= x860 <= +10000
-10000 <= x861 <= +10000
-10000 <= x862 <= +10000
-10000 <= x863 <= +10000
-10000 <= x864 <= +10000
-10000 <= x865 <= +10000
-10000 <= x866 <= +10000
-10000 <= x867 <= +10000
-10000 <= x868 <= +10000
-10000 <= x869 <= +10000
-10000 <= x870 <= +10000
-10000 <= x871 <= +10000
-10000 <= x872 <= +10000
-10000 <= x873 <= +10000
-10000 <= x874 <= +10000
-10000 <= x875 <= +10000
-10000 <= x876 <= +10000
-10000 <= x877 <= +10000
-10000 <= x878 <= +10000
-10000 <= x879 <= +10000
-10000 <= x880 <= +10000
-10000 <= x881 <= +10000
-10000 <= x882 <= +10000
-10000 <= x883 <= +10000
-10000 <= x884 <= +10000
-10000 <= x885 <= +10000
-10000 <= x886 <= +10000
-10000 <= x887 <= +10000
-10000 <= x888 <= +10000
-10000 <= x889 <= +10000
-10000 <= x890 <= +10000
-10000 <= x891 <= +10000
-10000 <= x892 <= +10000
-10000 <= x893 <= +10000
-10000 <= x894 <= +10000
-10000 <= x895 <= +10000
-10000 <= x896 <= +10000
-10000 <= x897 <= +10000
-10000 <= x898 <= +10000
-10000 <= x899 <= +10000
-10000 <= x900 <= +10000
-10000 <= x901 <= +10000
-10000 <= x902 <= +10000
-10000 <= x903 <= +10000
-10000 <= x904 <= +10000
-10000 <= x905 <= +10000
-10000 <= x906 <= +10000
-10000 <= x907 <= +10000
-10000 <= x908 <= +10000
-10000 <= x909 <= +10000
-10000 <= x910 <= +10000
-10000 <= x911 <= +10000
-10000 <= x912 <= +10000
-10000 <= x913 <= +10000
-10000 <= x914 <= +10000
-10000 <= x915 <= +10000
-10000 <= x916 <= +10000
-10000 <= x917 <= +10000
-10000 <= x918 <= +10000
-10000 <= x919 <= +10000
-10000 <= x920 <= +10000
-10000 <= x921 <= +10000
-10000 <= x922 <= +10000
-10000 <= x923 <= +10000
-10000 <= x924 <= +10000
-10000 <= x925 <= +10000
-10000 <= x926 <= +10000
-10000 <= x927 <= +10000
-10000 <= x928 <= +10000
-10000 <= x929 <= +10000
-10000 <= x930 <= +10000
-10000 <= x931 <= +10000
-10000 <= x932 <= +10000
-10000 <= x933 <= +10000
-10000 <= x934 <= +10000
-10000 <= x935 <= +10000
-10000 <= x936 <= +10000
-10000 <= x937 <= +10000
-10000 <= x938 <= +10000
-10000 <= x939 <= +10000
-10000 <= x940 <= +10000
-10000 <= x941 <= +10000
-10000 <= x942 <= +10000
-10000 <= x943 <= +10000
-10000 <= x944 <= +10000
-10000 <= x945 <= +10000
-10000 <= x946 <= +10000
-10000 <= x947 <= +10000
-10000 <= x948 <= +10000
-10000 <= x949 <= +10000
-10000 <= x950 <= +10000
-10000 <= x951 <= +10000
-10000 <= x952 <= +10000
-10000 <= x953 <= +10000
-10000 <= x954 <= +10000
-10000 <= x955 <= +10000
-10000 <= x956 <= +10000
-10000 <= x957 <= +10000
-10000 <= x958 <= +10000
-10000 <= x959 <= +10000
-10000 <= x960 <= +10000
-10000 <= x961 <= +10000
-10000 <= x962 <= +10000
-10000 <= x963 <= +10000
-10000 <= x964 <= +10000
-10000 <= x965 <= +10000
-5000 <= x1017 <= +5000
-5000 <= x1018 <= +5000
-5000 <= x1019 <= +5000
-5000 <= x1020 <= +5000
-5000 <= x1021 <= +5000
-5000 <= x1022 <= +5000
-5000 <= x1023 <= +5000
-5000 <= x1024 <= +5000
-5000 <= x1025 <= +5000
-5000 <= x1026 <= +5000
-5000 <= x1027 <= +5000
-5000 <= x1028 <= +5000
-5000 <= x1029 <= +5000
-5000 <= x1030 <= +5000
-5000 <= x1031 <= +5000
-5000 <= x1032 <= +5000
-5000 <= x1033 <= +5000
-5000 <= x1034 <= +5000
-5000 <= x1035 <= +5000
-5000 <= x1036 <= +5000
-5000 <= x1037 <= +5000
-5000 <= x1038 <= +5000
-5000 <= x1039 <= +5000
-5000 <= x1040 <= +5000
-5000 <= x1041 <= +5000
-5000 <= x1042 <= +5000
-5000 <= x1043 <= +5000
-5000 <= x1044 <= +5000
-5000 <= x1045 <= +5000
-5000 <= x1046 <= +5000
-5000 <= x1047 <= +5000
-5000 <= x1048 <= +5000
-5000 <= x1049 <= +5000
-5000 <= x1050 <= +5000
-5000 <= x1051 <= +5000
-5000 <= x1052 <= +5000
-5000 <= x1053 <= +5000
-5000 <= x1054 <= +5000
-5000 <= x1055 <= +5000
-5000 <= x1056 <= +5000
-5000 <= x1057 <= +5000
-5000 <= x1058 <= +5000
-5000 <= x1059 <= +5000
-5000 <= x1060 <= +5000
-5000 <= x1061 <= +5000
-5000 <= x1062 <= +5000
-5000 <= x1063 <= +5000
-5000 <= x1064 <= +5000
-5000 <= x1065 <= +5000
-5000 <= x1066 <= +5000
-5000 <= x1067 <= +5000
+0 <= x1089 <= +20
+0 <= x1090 <= +20
+0 <= x1091 <= +20
+0 <= x1092 <= +20
+0 <= x1093 <= +20
+0 <= x1094 <= +20
+0 <= x1095 <= +20
+0 <= x1096 <= +20
+0 <= x1097 <= +20
+0 <= x1098 <= +20
+0 <= x1099 <= +20
+0 <= x1100 <= +20
+0 <= x1101 <= +20
+0 <= x1102 <= +20
+0 <= x1103 <= +20
+0 <= x1104 <= +20
+0 <= x1105 <= +20
+0 <= x1106 <= +20
+0 <= x1107 <= +20
+0 <= x1108 <= +20
+0 <= x1109 <= +20
+0 <= x1110 <= +20
+0 <= x1111 <= +20
+0 <= x1112 <= +20
+0 <= x1113 <= +20
+0 <= x1114 <= +20
+0 <= x1115 <= +20
+0 <= x1116 <= +20
+0 <= x1117 <= +20
+0 <= x1118 <= +20
+0 <= x1119 <= +20
+0 <= x1120 <= +20
+0 <= x1121 <= +20
+0 <= x1122 <= +20
+0 <= x1123 <= +20
+0 <= x1124 <= +20
+0 <= x1125 <= +20
+0 <= x1126 <= +20
+0 <= x1127 <= +20
+0 <= x1128 <= +20
+0 <= x1129 <= +20
+0 <= x1130 <= +20
+0 <= x1131 <= +20
+0 <= x1132 <= +20
+0 <= x1133 <= +20
+0 <= x1134 <= +20
+0 <= x1135 <= +20
+0 <= x1136 <= +20
+0 <= x1137 <= +20
+0 <= x1138 <= +20
+0 <= x1139 <= +20
+0 <= x1140 <= +20
+0 <= x1141 <= +20
+0 <= x1142 <= +20
+0 <= x1143 <= +20
+0 <= x1144 <= +20
+0 <= x1145 <= +20
+0 <= x1146 <= +20
+0 <= x1147 <= +20
+0 <= x1148 <= +20
+0 <= x1149 <= +20
+0 <= x1150 <= +20
+0 <= x1151 <= +20
+0 <= x1152 <= +20
+0 <= x1153 <= +20
+0 <= x1154 <= +20
+0 <= x1155 <= +20
+0 <= x1156 <= +20
+0 <= x1157 <= +20
+0 <= x1158 <= +20
+0 <= x1159 <= +20
+0 <= x1160 <= +20
+0 <= x1161 <= +20
+0 <= x1162 <= +20
+0 <= x1163 <= +20
+0 <= x1164 <= +20
+0 <= x1165 <= +20
+0 <= x1166 <= +20
+0 <= x1167 <= +20
+0 <= x1168 <= +20
+0 <= x1169 <= +20
+0 <= x1170 <= +20
+0 <= x1171 <= +20
+0 <= x1172 <= +20
+0 <= x1173 <= +20
+0 <= x1174 <= +20
+0 <= x1175 <= +20
+0 <= x1176 <= +20
+0 <= x1177 <= +20
+0 <= x1178 <= +20
+0 <= x1179 <= +20
+0 <= x1180 <= +20
+0 <= x1181 <= +20
+0 <= x1182 <= +20
+0 <= x1183 <= +20
+0 <= x1184 <= +20
+0 <= x1185 <= +20
+0 <= x1186 <= +20
+0 <= x1187 <= +20
+0 <= x1188 <= +20
+0 <= x1189 <= +20
+0 <= x1190 <= +20
+0 <= x1191 <= +20
+0 <= x1192 <= +20
+0 <= x1193 <= +20
+0 <= x1194 <= +20
+0 <= x1195 <= +20
+0 <= x1196 <= +20
+0 <= x1197 <= +20
+0 <= x1198 <= +20
+0 <= x1199 <= +20
+0 <= x1200 <= +20
+0 <= x1201 <= +20
+0 <= x1202 <= +20
+0 <= x1203 <= +20
+0 <= x1204 <= +20
+0 <= x1205 <= +20
+0 <= x1206 <= +20
+0 <= x1207 <= +20
+0 <= x1208 <= +20
+0 <= x1209 <= +20
+0 <= x1210 <= +20
+0 <= x1211 <= +20
+0 <= x1212 <= +20
+0 <= x1213 <= +20
+0 <= x1214 <= +20
+0 <= x1215 <= +20
+0 <= x1216 <= +20
+0 <= x1217 <= +20
+0 <= x1218 <= +20
+0 <= x1219 <= +20
+0 <= x1220 <= +20
+0 <= x1221 <= +20
+0 <= x1222 <= +20
+0 <= x1223 <= +20
+0 <= x1224 <= +20
+0 <= x1225 <= +20
+0 <= x1226 <= +20
+0 <= x1227 <= +20
+0 <= x1228 <= +20
+0 <= x1229 <= +20
+0 <= x1230 <= +20
+0 <= x1231 <= +20
+0 <= x1232 <= +20
+0 <= x1233 <= +20
+0 <= x1234 <= +20
+0 <= x1235 <= +20
+0 <= x1236 <= +20
+0 <= x1237 <= +20
+0 <= x1238 <= +20
+0 <= x1239 <= +20
+0 <= x1240 <= +20
+0 <= x1241 <= +20
+0 <= x1242 <= +20
+0 <= x1243 <= +20
+0 <= x1244 <= +20
+0 <= x1245 <= +20
+0 <= x1246 <= +20
+0 <= x1247 <= +20
+0 <= x1248 <= +20
+0 <= x1249 <= +20
+0 <= x1250 <= +20
+0 <= x1251 <= +20
+0 <= x1252 <= +20
+0 <= x1253 <= +20
+0 <= x1254 <= +20
+0 <= x1255 <= +20
+0 <= x1256 <= +20
+0 <= x1257 <= +20
+0 <= x1258 <= +20
+0 <= x1259 <= +20
+0 <= x1260 <= +20
+0 <= x1261 <= +20
+0 <= x1262 <= +20
+0 <= x1263 <= +20
+0 <= x1264 <= +20
+0 <= x1265 <= +20
+0 <= x1266 <= +20
+0 <= x1267 <= +20
+0 <= x1268 <= +20
+0 <= x1269 <= +20
+0 <= x1270 <= +20
+0 <= x1271 <= +20
+0 <= x1272 <= +20
+0 <= x1273 <= +20
+0 <= x1274 <= +20
+0 <= x1275 <= +20
+0 <= x1276 <= +20
+0 <= x1277 <= +20
+0 <= x1278 <= +20
+0 <= x1279 <= +20
+0 <= x1280 <= +20
+0 <= x1281 <= +20
+0 <= x1282 <= +20
+0 <= x1283 <= +20
+0 <= x1284 <= +20
+0 <= x1285 <= +20
+0 <= x1286 <= +20
+0 <= x1287 <= +20
+0 <= x1288 <= +20
+0 <= x1289 <= +20
+0 <= x1290 <= +20
+0 <= x1291 <= +20
+0 <= x1292 <= +20
+0 <= x1293 <= +20
+0 <= x1294 <= +20
+0 <= x1295 <= +20
+0 <= x1296 <= +20
+0 <= x1297 <= +20
+0 <= x1298 <= +20
+0 <= x1299 <= +20
+0 <= x1300 <= +20
+0 <= x1301 <= +20
+0 <= x1302 <= +20
+0 <= x1303 <= +20
+0 <= x1304 <= +20
+0 <= x1305 <= +20
+0 <= x1306 <= +20
+0 <= x1307 <= +20
+0 <= x1308 <= +20
+0 <= x1309 <= +20
+0 <= x1310 <= +20
+0 <= x1311 <= +20
+0 <= x1312 <= +20
+0 <= x1313 <= +20
+0 <= x1314 <= +20
+0 <= x1315 <= +20
+0 <= x1316 <= +20
+0 <= x1317 <= +20
+0 <= x1318 <= +20
+0 <= x1319 <= +20
+0 <= x1320 <= +20
+0 <= x1321 <= +20
+0 <= x1322 <= +20
+0 <= x1323 <= +20
+0 <= x1324 <= +20
+0 <= x1325 <= +20
+0 <= x1326 <= +20
+0 <= x1327 <= +20
+0 <= x1328 <= +20
+0 <= x1329 <= +20
+0 <= x1330 <= +20
+0 <= x1331 <= +20
+0 <= x1332 <= +20
+0 <= x1333 <= +20
+0 <= x1334 <= +20
+0 <= x1335 <= +20
+0 <= x1336 <= +20
+0 <= x1337 <= +20
+0 <= x1338 <= +20
+0 <= x1339 <= +20
+0 <= x1340 <= +20
+0 <= x1341 <= +20
+0 <= x1342 <= +20
+0 <= x1343 <= +20
+0 <= x1344 <= +20
+0 <= x1345 <= +20
+0 <= x1346 <= +20
+0 <= x1347 <= +20
+0 <= x1348 <= +20
+0 <= x1349 <= +20
+0 <= x1350 <= +20
+0 <= x1351 <= +20
+0 <= x1352 <= +20
+0 <= x1353 <= +20
+0 <= x1354 <= +20
+0 <= x1355 <= +20
+0 <= x1356 <= +20
+0 <= x1357 <= +20
+0 <= x1358 <= +20
+0 <= x1359 <= +20
+0 <= x1360 <= +20
+0 <= x1361 <= +20
+0 <= x1362 <= +20
+0 <= x1363 <= +20
+0 <= x1364 <= +20


binary

x0
x1
x2
x3
x4
x5
x6
x7
x8
x9
x10
x11
x12
x13
x14
x15
x16
x17
x18
x19
x20
x21
x22
x23
x24
x25
x26
x27
x28
x29
x30
x31
x32
x33
x34
x35
x36
x37
x38
x39
x40
x41
x42
x43
x44
x45
x46
x47
x48
x49
x50
x51
x52
x53
x54
x55
x56
x57
x58
x59
x60
x61
x62
x63
x64
x65
x66
x67
x68
x69
x70
x71
x72
x73
x74
x75
x76
x77
x78
x79
x80
x81
x82
x83
x84
x85
x86
x87
x88
x89
x90
x91
x92
x93
x94
x95
x96
x97
x98
x99
x100
x101
x102
x103
x104
x105
x106
x107
x108
x109
x110
x111
x112
x113
x114
x115
x116
x117
x118
x119
x120
x121
x122
x123
x124
x125
x126
x127
x128
x129
x130
x131
x132
x133
x134
x135
x136
x137
x138
x139
x140
x141
x142
x143
x144
x145
x146
x147
x148
x149
x150
x151
x152
x153
x154
x155
x156
x157
x158
x159
x160
x161
x162
x163
x164
x165
x166
x167
x168
x169
x170
x171
x172
x173
x174
x175
x176
x177
x178
x179
x180
x181
x182
x183
x184
x185
x186
x187
x188
x189
x190
x191
x192
x193
x194
x195
x196
x197
x198
x199
x200
x201
x202
x203
x204
x205
x206
x207
x208
x209
x210
x211
x212
x213
x214
x215
x216
x217
x218
x219
x220
x221
x222
x223
x224
x225
x226
x227
x228
x229
x230
x231
x232
x233
x234
x235
x236
x237
x238
x239
x240
x241
x242
x243
x244
x245
x246
x247
x248
x249
x250
x251
x252
x253
x254
x255
x256
x257
x258
x259
x260
x261
x262
x263
x264
x265
x266
x267
x268
x269
x270
x271
x272
x273
x274
x275
x276
x277
x278
x279
x280
x281
x282
x283
x284
x285
x286
x287
x288
x289
x290
x291
x292
x293
x294
x295
x296
x297
x298
x299
x300
x301
x302
x303
x304
x305
x306
x307
x308
x309
x310
x311
x312
x313
x314
x315
x316
x317
x318
x319
x320
x321
x322
x323
x324
x325
x326
x327
x328
x329
x330
x331
x332
x333
x334
x335
x336
x337
x338
x339
x340
x341
x342
x343
x344
x345
x346
x347
x348
x349
x350
x351
x352
x353
x354
x355
x356
x357
x358
x359
x360
x361
x362
x363
x364
x365
x366
x367
x368
x369
x370
x371
x372
x373
x374
x375
x376
x377
x378
x379
x380
x381
x382
x383
x384
x385
x386
x387
x388
x389
x390
x391
x392
x393
x394
x395
x396
x397
x398
x399
x400
x401
x402
x403
x404
x405
x406
x407
x408
x409
x410
x411
x412
x413
x966
x967
x968
x969
x970
x971
x972
x973
x974
x975
x976
x977
x978
x979
x980
x981
x982
x983
x984
x985
x986
x987
x988
x989
x990
x991
x992
x993
x994
x995
x996
x997
x998
x999
x1000
x1001
x1002
x1003
x1004
x1005
x1006
x1007
x1008
x1009
x1010
x1011
x1012
x1013
x1014
x1015
x1016
x1068
x1069
x1070
x1071
x1072
x1073
x1074
x1075
x1076
x1077
x1078
x1079
x1080
x1081
x1082
x1083
x1084
x1085
x1086
x1087
x1088
end
